Generated by pymatgen.io.lammps.data.LammpsData

1951  atoms

   2  atom types

0.000000000000 28.553120000000  xlo xhi
0.000000000000 28.553120000000  ylo yhi
0.000000000000 28.553120000000  zlo zhi
0.000000000000 0.000000000000 0.000000000000  xy xz yz

Masses

1  55.847000
2  30.973762

Atoms

1     0  1   1.188442358154   1.188442421114   1.188442489280
2     0  1  -1.584590205490   1.188442708511   1.188442733468
3     0  1   1.188442721517  -1.584590198190   1.188442746350
4     0  1   1.188442726836   1.188442711075  -1.584590250136
5     0  1  -1.584590169998  -1.584590177979   1.188442731226
6     0  1  -1.584590178534   1.188442721585  -1.584590231732
7     0  1   1.188442747517  -1.584590186116  -1.584590218455
8     0  1  -1.584590157997  -1.584590176575  -1.584590211644
9     0  1  -0.198073753422  -0.198073749291   2.696184856588
10    0  1  -0.198073768282   2.696184737313  -0.198073790042
11    0  1   2.696184740729  -0.198073756534  -0.198073764309
12    0  1  -3.092332172661  -0.198073731759  -0.198073753560
13    0  1  -0.198073707204  -3.092332177979  -0.198073744641
14    0  1  -0.198073708451  -0.198073731313  -3.092332238736
15    0  1  -0.198073685816   2.650685968138   2.650686118537
16    0  1   2.650685949250  -0.198073653055   2.650686126097
17    0  1   2.650686010414   2.650685989761  -0.198073707569
18    0  1  -3.046833538068  -0.198073736369   2.650686085290
19    0  1  -3.046833518256   2.650686075875  -0.198073758560
20    0  1  -0.198073718049  -3.046833535789   2.650686089678
21    0  1  -0.198073711494   2.650686077787  -3.046833584679
22    0  1   2.650686105903  -3.046833515674  -0.198073736821
23    0  1   2.650686112137  -0.198073733190  -3.046833570771
24    0  1  -3.046833504689  -3.046833525225  -0.198073746574
25    0  1  -3.046833511223  -0.198073728123  -3.046833577799
26    0  1  -0.198073691857  -3.046833529046  -3.046833564309
27    0  1   1.231128358154   1.231128421114   4.084785489280
28    0  1   1.231128460439   4.084784905563   1.231128477263
29    0  1   4.084784925236   1.231128449315   1.231128488547
30    0  1  -1.627275983598   1.231128479035   4.084785038855
31    0  1  -1.627275919841   4.084784953146   1.231128493707
32    0  1   1.231128487983  -1.627275969927   4.084785042303
33    0  1   1.231128508669   4.084784962949  -1.627275978741
34    0  1   4.084784970858  -1.627275911179   1.231128513344
35    0  1   4.084784999367   1.231128482813  -1.627275963846
36    0  1   2.641431816725   2.641431807049   2.641432015887
37    0  1  -1.627275994421  -1.627275998874   4.084784994025
38    0  1  -1.627275937710   4.084784992722  -1.627275993839
39    0  1   4.084785023976  -1.627275941136  -1.627275965953
40    0  1  -4.480932429761   1.231128486299   1.231128468737
41    0  1   1.231128517448  -4.480932427316   1.231128483129
42    0  1   1.231128522028   1.231128485703  -4.480932487638
43    0  1  -3.037579463394   2.641432003581   2.641432009541
44    0  1   2.641432025800  -3.037579455139   2.641432023354
45    0  1   2.641432038579   2.641432000287  -3.037579506058
46    0  1  -4.480932424649  -1.627275943199   1.231128474632
47    0  1  -4.480932421902   1.231128488584  -1.627275980649
48    0  1  -1.627275915047  -4.480932434653   1.231128476506
49    0  1  -1.627275918428   1.231128492804  -4.480932492976
50    0  1   1.231128527670  -4.480932426254  -1.627275958409
51    0  1   1.231128529855  -1.627275941289  -4.480932477283
52    0  1  -4.480932415526  -1.627275943830  -1.627275974345
53    0  1  -1.627275908117  -4.480932431056  -1.627275965976
54    0  1  -1.627275913098  -1.627275945513  -4.480932484213
55    0  1  -3.037579468119  -3.037579484810   2.641432000169
56    0  1  -3.037579450914   2.641432015960  -3.037579515949
57    0  1   2.641432056151  -3.037579462791  -3.037579492975
58    0  1  -3.037579434912  -3.037579463209  -3.037579501691
59    0  1  -0.198073890327  -0.198073887554   5.514970681734
60    0  1  -0.198073709895   5.514970598989  -0.198073752093
61    0  1   5.514970637909  -0.198073727012  -0.198073732066
62    0  1  -5.911118056475  -0.198073725576  -0.198073754924
63    0  1  -0.198073687295  -5.911118063310  -0.198073742981
64    0  1  -0.198073689334  -0.198073724713  -5.911118123629
65    0  1  -0.198073822355   2.656424595733   5.511633881950
66    0  1  -0.198073704273   5.511633758329   2.656424548937
67    0  1   2.656424575209  -0.198073789377   5.511633886469
68    0  1   2.656424563437   5.511633741737  -0.198073732673
69    0  1   5.511633786390  -0.198073713689   2.656424562006
70    0  1   5.511633785888   2.656424526303  -0.198073726976
71    0  1   1.229160827452   4.081251852981   4.081251939851
72    0  1   4.081251866336   1.229160818573   4.081251946681
73    0  1   4.081251851664   4.081251817127   1.229160858658
74    0  1  -1.625308285735   4.081251894827   4.081251889307
75    0  1   4.081251902025  -1.625308268394   4.081251899599
76    0  1   4.081251905181   4.081251860162  -1.625308290531
77    0  1  -3.052572032615  -0.198073751113   5.511633825330
78    0  1  -3.052571986134   5.511633782761  -0.198073751643
79    0  1  -0.198073734437  -3.052572035464   5.511633825125
80    0  1  -0.198073693885   5.511633782377  -3.052572054905
81    0  1   5.511633818466  -3.052571992822  -0.198073725755
82    0  1   5.511633832317  -0.198073725161  -3.052572037544
83    0  1  -4.477399356314   1.229160838639   4.081251913867
84    0  1  -4.477399342497   4.081251904709   1.229160811078
85    0  1   1.229160862944  -4.477399353226   4.081251917848
86    0  1   1.229160875549   4.081251902005  -4.477399407023
87    0  1   4.081251941343  -4.477399342569   1.229160833457
88    0  1   4.081251952947   1.229160834729  -4.477399396908
89    0  1  -4.477399356197  -1.625308305606   4.081251914674
90    0  1  -4.477399339094   4.081251911631  -1.625308332597
91    0  1  -1.625308278162  -4.477399366215   4.081251913029
92    0  1  -1.625308264716   4.081251910463  -4.477399412563
93    0  1   4.081251955279  -4.477399346670  -1.625308302768
94    0  1   4.081251959534  -1.625308292719  -4.477399392657
95    0  1  -4.477399342516  -4.477399362011   1.229160819457
96    0  1  -4.477399338013   1.229160838741  -4.477399411000
97    0  1   1.229160888535  -4.477399357300  -4.477399386741
98    0  1  -4.477399329826  -4.477399356614  -1.625308314508
99    0  1  -4.477399331600  -1.625308294090  -4.477399404015
100   0  1  -1.625308247446  -4.477399357187  -4.477399394593
101   0  1  -5.907781228291  -0.198073726929   2.656424552002
102   0  1  -5.907781224022   2.656424563574  -0.198073761268
103   0  1  -0.198073693952  -5.907781231275   2.656424555624
104   0  1  -0.198073690062   2.656424562510  -5.907781293263
105   0  1   2.656424604864  -5.907781226119  -0.198073738517
106   0  1   2.656424610873  -0.198073727583  -5.907781284686
107   0  1   2.656369288036   2.656369278190   5.511310054610
108   0  1   2.656369322970   5.511309862230   2.656369327991
109   0  1   5.511309898577   2.656369295250   2.656369334415
110   0  1  -5.907781220267  -3.052572012709  -0.198073748609
111   0  1  -5.907781219060  -0.198073727624  -3.052572053904
112   0  1  -3.052571979506  -5.907781233949  -0.198073745398
113   0  1  -3.052571979959  -0.198073726424  -5.907781293345
114   0  1  -0.198073679537  -5.907781233233  -3.052572035263
115   0  1  -0.198073677343  -3.052572013391  -5.907781280706
116   0  1  -3.052516802707   2.656369354511   5.511309947442
117   0  1  -3.052516777913   5.511309920487   2.656369318499
118   0  1   2.656369373870  -3.052516798365   5.511309951056
119   0  1   2.656369380087   5.511309903772  -3.052516824660
120   0  1   5.511309953097  -3.052516780971   2.656369340142
121   0  1   5.511309960453   2.656369332070  -3.052516816461
122   0  1  -3.052516791524  -3.052516812474   5.511309960563
123   0  1  -3.052516775020   5.511309932981  -3.052516845558
124   0  1   5.511309975807  -3.052516789890  -3.052516815693
125   0  1   1.229658358154   1.229658421114   6.940422489280
126   0  1   1.229658746147   6.940422394141   1.229658702994
127   0  1   6.940422441164   1.229658715712   1.229658716600
128   0  1  -5.907457361372   2.656369346898   2.656369326207
129   0  1   2.656369381279  -5.907457362781   2.656369338149
130   0  1   2.656369390603   2.656369341374  -5.907457421759
131   0  1  -1.625806214233   1.229658702144   6.940422488365
132   0  1  -1.625806149736   6.940422409771   1.229658700840
133   0  1   1.229658712248  -1.625806205913   6.940422488963
134   0  1   1.229658759427   6.940422401186  -1.625806208481
135   0  1   6.940422451886  -1.625806167621   1.229658724052
136   0  1   6.940422454387   1.229658719540  -1.625806194143
137   0  1  -1.625806185835  -1.625806196194   6.940422528522
138   0  1  -1.625806148221   6.940422414598  -1.625806216263
139   0  1   6.940422464939  -1.625806176322  -1.625806192377
140   0  1  -5.907457359826  -3.052516799913   2.656369334494
141   0  1  -5.907457353365   2.656369348360  -3.052516842276
142   0  1  -3.052516771830  -5.907457371803   2.656369334602
143   0  1  -3.052516770977   2.656369349819  -5.907457430057
144   0  1   2.656369396446  -5.907457365946  -3.052516812642
145   0  1   2.656369396137  -3.052516794382  -5.907457408803
146   0  1   4.078406281882   4.078406253787   4.078406323116
147   0  1  -5.907457348161  -3.052516797437  -3.052516827804
148   0  1  -3.052516755524  -5.907457370639  -3.052516821546
149   0  1  -3.052516754529  -3.052516795312  -5.907457419994
150   0  1  -7.336569851395   1.229658732791   1.229658702998
151   0  1   1.229658771378  -7.336569856956   1.229658717233
152   0  1   1.229658775179   1.229658728903  -7.336569920414
153   0  1  -7.336569851986  -1.625806179562   1.229658709000
154   0  1  -7.336569849766   1.229658730364  -1.625806218964
155   0  1  -4.474553788457   4.078406354188   4.078406334848
156   0  1  -1.625806142286  -7.336569859572   1.229658713427
157   0  1  -1.625806142219   1.229658733641  -7.336569924192
158   0  1   1.229658778752  -7.336569861333  -1.625806195224
159   0  1   1.229658780035  -1.625806181461  -7.336569914801
160   0  1   4.078406384470  -4.474553787415   4.078406346060
161   0  1   4.078406391827   4.078406335627  -4.474553834138
162   0  1  -7.336569849704  -1.625806179433  -1.625806211520
163   0  1  -1.625806136324  -7.336569862048  -1.625806200688
164   0  1  -1.625806135584  -1.625806180646  -7.336569920056
165   0  1  -4.474553786445  -4.474553806603   4.078406353415
166   0  1  -4.474553777146   4.078406356549  -4.474553853889
167   0  1   4.078406407785  -4.474553795830  -4.474553825097
168   0  1   1.229562358154   1.229562421114   9.795589489280
169   0  1   1.229561961395   1.229561911241 -10.191736969900
170   0  1   1.229322869496   4.084135533708   6.939290583539
171   0  1   1.229510521594   4.084719277181   9.795309859569
172   0  1   1.229322937037   4.084135520021  -7.335438088696
173   0  1   1.229322906173   6.939290578289   4.084135492892
174   0  1   1.229382643930   6.938962823907   6.938962778320
175   0  1   1.229382673215   6.938962811652  -7.335110303930
176   0  1   1.229322934242   6.939290580347  -4.480283009908
177   0  1   1.229561940561   9.795589469794   1.229561868686
178   0  1   1.229510469396   9.795309886555   4.084719173477
179   0  1   1.229561949047   9.795589464471  -1.625709388208
180   0  1   1.229561953760 -10.191736913353   1.229561890369
181   0  1   1.229561958883 -10.191736910713  -1.625709369301
182   0  1   1.229322929049  -7.335438028547   4.084135514215
183   0  1   1.229382664581  -7.335110258221   6.938962805662
184   0  1   1.229382683587  -7.335110262119  -7.335110291186
185   0  1   1.229322946775  -7.335438034232  -4.480282991296
186   0  1   1.229322921388  -4.480282970125   6.939290608603
187   0  1   1.229322947454  -4.480282973357  -7.335438074219
188   0  1   1.229561994653  -1.625709311122   9.795589495851
189   0  1   1.229561960822  -1.625709353560 -10.191736970031
190   0  1   4.084135545339   1.229322858010   6.939290586610
191   0  1   4.084719296029   1.229510503284   9.795309855767
192   0  1   4.084135577418   1.229322888607  -7.335438083805
193   0  1   4.083886076690   4.083886049001   6.938952650903
194   0  1   4.083886076617   4.083886014598  -7.335100199122
195   0  1   4.084135529070   6.939290549632   1.229322871380
196   0  1   4.083886027972   6.938952680929   4.083885977945
197   0  1   4.084248383610   6.938928467976   6.938928412330
198   0  1   4.083886068373   6.938952695923  -4.480033494512
199   0  1   4.084135547377   6.939290558714  -1.625470352289
200   0  1   4.084719243971   9.795309875134   1.229510405434
201   0  1   4.084135568518  -7.335438024363   1.229322878430
202   0  1   4.083886067557  -7.335100146939   4.083886007906
203   0  1   4.083886081538  -7.335100150557  -4.480033485246
204   0  1   4.084135576463  -7.335438028469  -1.625470351835
205   0  1   4.083886069866  -4.480033467277   6.938952709494
206   0  1   4.083886081393  -4.480033468367  -7.335100189874
207   0  1   4.084135567051  -1.625470349481   6.939290616853
208   0  1   4.084135578440  -1.625470342911  -7.335438080604
209   0  1   6.939290616742   1.229322881910   4.084135502593
210   0  1   6.938962861214   1.229382616714   6.938962787405
211   0  1   6.938962875539   1.229382613061  -7.335110299754
212   0  1   6.939290641508   1.229322883597  -4.480282999527
213   0  1   6.939290601199   4.084135483737   1.229322873965
214   0  1   6.938952725570   4.083885988413   4.083885981679
215   0  1   6.938928510656   4.084248345219   6.938928419565
216   0  1   6.938952756457   4.083886008032  -4.480033495490
217   0  1   6.939290616366   4.084135494954  -1.625470350262
218   0  1   6.938962828949   6.938962782967   1.229382596082
219   0  1   6.938928485962   6.938928445676   4.084248296382
220   0  1   6.938962839818   6.938962786452  -1.625530080964
221   0  1   6.938962869308  -7.335110254411   1.229382609791
222   0  1   6.938962874172  -7.335110254045  -1.625530075437
223   0  1   6.939290638318  -4.480282955457   1.229322881959
224   0  1   6.938952760124  -4.480033459901   4.083886006727
225   0  1   6.938952768332  -4.480033464721  -4.480033488946
226   0  1   6.939290641782  -4.480282958316  -1.625470345018
227   0  1   6.939290627411  -1.625470332222   4.084135504408
228   0  1   6.938962864390  -1.625530069029   6.938962798823
229   0  1   6.938962876270  -1.625530071742  -7.335110298550
230   0  1   6.939290646665  -1.625470341196  -4.480282996588
231   0  1   9.795589524755   1.229561902312   1.229561883595
232   0  1   9.795309935473   1.229510434645   4.084719189863
233   0  1   9.795589526019   1.229561900656  -1.625709378162
234   0  1   9.795309925945   4.084719202749   1.229510410456
235   0  1   9.795589529042  -1.625709351173   1.229561889204
236   0  1   9.795589531132  -1.625709354580  -1.625709373116
237   0  1 -10.191736893590   1.229561913994   1.229561880624
238   0  1 -10.191736893998   1.229561913786  -1.625709391593
239   0  1 -10.191736894269  -1.625709354086   1.229561886659
240   0  1 -10.191736893283  -1.625709354199  -1.625709385788
241   0  1  -7.335438022485   1.229322893178   4.084135512242
242   0  1  -7.335110243533   1.229382625041   6.938962815073
243   0  1  -7.335110234019   1.229382619605  -7.335110314434
244   0  1  -7.335438015648   1.229322891027  -4.480283018827
245   0  1  -7.335438017021   4.084135529862   1.229322859931
246   0  1  -7.335100136544   4.083886031552   4.083886002290
247   0  1  -7.335100131913   4.083886030592  -4.480033518334
248   0  1  -7.335438015026   4.084135530230  -1.625470380946
249   0  1  -7.335110231583   6.938962828255   1.229382585778
250   0  1  -7.335110230247   6.938962829847  -1.625530108999
251   0  1  -7.335110230931  -7.335110270258   1.229382610064
252   0  1  -7.335110225801  -7.335110267731  -1.625530086423
253   0  1  -7.335438014281  -4.480282975588   1.229322875578
254   0  1  -7.335100133097  -4.480033477876   4.083886017760
255   0  1  -7.335100122869  -4.480033472189  -4.480033501197
256   0  1  -7.335438012005  -4.480282973249  -1.625470361609
257   0  1  -7.335438023310  -1.625470342466   4.084135516661
258   0  1  -7.335110246199  -1.625530072456   6.938962820755
259   0  1  -7.335110230256  -1.625530072422  -7.335110309596
260   0  1  -7.335438013556  -1.625470342042  -4.480283012873
261   0  1  -4.480282966382   1.229322893761   6.939290610704
262   0  1  -4.480282940380   1.229322888303  -7.335438095011
263   0  1  -4.480033461952   4.083886041407   6.938952711607
264   0  1  -4.480033437821   4.083886028863  -7.335100212006
265   0  1  -4.480282941405   6.939290597445   1.229322855083
266   0  1  -4.480033440134   6.938952721806   4.083885993060
267   0  1  -4.480033435967   6.938952725328  -4.480033515484
268   0  1  -4.480282938291   6.939290597205  -1.625470377140
269   0  1  -4.480282936883  -7.335438040197   1.229322872590
270   0  1  -4.480033434224  -7.335100162343   4.083886014787
271   0  1  -4.480033421528  -7.335100157000  -4.480033495865
272   0  1  -4.480282933286  -7.335438036452  -1.625470360223
273   0  1  -4.480033453081  -4.480033481638   6.938952728165
274   0  1  -4.480033422753  -4.480033470878  -7.335100199531
275   0  1  -4.474553763452  -4.474553799432  -4.474553836193
276   0  1  -4.480282961761  -1.625470347993   6.939290622631
277   0  1  -4.480282934742  -1.625470341244  -7.335438090088
278   0  1  -1.625709306775   1.229561977200   9.795589503029
279   0  1  -1.625709308642   1.229561912061 -10.191736973056
280   0  1  -1.625470361673   4.084135562838   6.939290612243
281   0  1  -1.625470301989   4.084135523921  -7.335438091577
282   0  1  -1.625470316818   6.939290592367   4.084135489304
283   0  1  -1.625530047632   6.938962831685   6.938962792247
284   0  1  -1.625530021584   6.938962822074  -7.335110308562
285   0  1  -1.625470299548   6.939290592821  -4.480283015039
286   0  1  -1.625709316162   9.795589479938   1.229561870559
287   0  1  -1.625709310270   9.795589475910  -1.625709389424
288   0  1  -1.625709309556 -10.191736911990   1.229561887307
289   0  1  -1.625709306144 -10.191736912463  -1.625709375566
290   0  1  -1.625470305887  -7.335438032370   4.084135514020
291   0  1  -1.625530029768  -7.335110263557   6.938962814141
292   0  1  -1.625530008740  -7.335110260715  -7.335110293653
293   0  1  -1.625470288219  -7.335438033806  -4.480282997611
294   0  1  -1.625470314337  -4.480282978422   6.939290622165
295   0  1  -1.625470286596  -4.480282970705  -7.335438079209
296   0  1  -1.625709323029  -1.625709347242   9.795589533223
297   0  1  -1.625709303324  -1.625709355296 -10.191736970954
298   0  1   2.657055034629   2.657055022576   8.367648013751
299   0  1   2.657055026591   2.657054973310  -8.763795689673
300   0  1   2.656530470691   5.510433983956   5.510433976364
301   0  1   2.656934212982   5.511906732454   8.367115065653
302   0  1   2.656934228449   5.511906708465  -8.763262607352
303   0  1   2.656530517348   5.510433995791  -5.906581492371
304   0  1   2.657054992967   8.367648179812   2.657054936008
305   0  1   2.656934196858   8.367115118353   5.511906666927
306   0  1   2.656934222778   8.367115113408  -5.908054186647
307   0  1   2.657055014452   8.367648179258  -3.053202446070
308   0  1   2.657104111970   8.367768107749  -0.198073750036
309   0  1   2.657055016083  -8.763795631621   2.657054956639
310   0  1   2.656934215803  -8.763262560425   5.511906692430
311   0  1   2.657055029866  -8.763795634527  -3.053202434144
312   0  1   2.657104133234  -8.763915565283  -0.198073737455
313   0  1   2.656530506919  -5.906581443582   5.510434000886
314   0  1   2.656934220209  -5.908054158539   8.367115113669
315   0  1   2.656530525508  -5.906581450592  -5.906581478189
316   0  1   2.657055018814  -3.053202418974   8.367648210604
317   0  1   2.657055025737  -3.053202420542  -8.763795685338
318   0  1   2.657104114160  -0.198073694758   8.367768149072
319   0  1   2.657104136130  -0.198073724453  -8.763915623740
320   0  1   5.510434017320   2.656530444252   5.510433981227
321   0  1   5.511906764752   2.656934182766   8.367115069699
322   0  1   5.511906773851   2.656934165446  -8.763262607465
323   0  1   5.510434058988   2.656530458361  -5.906581489156
324   0  1   5.510433991275   5.510433945292   2.656530442749
325   0  1   5.509626670792   5.509626629222   5.509626584538
326   0  1   5.509626708264   5.509626645731  -5.905774132582
327   0  1   5.510434033578   5.510433975569  -3.052677926835
328   0  1   5.510447250947   5.510447199601  -0.198073725908
329   0  1   5.511906728549   8.367115101304   2.656934132290
330   0  1   5.511906748380   8.367115102997  -3.053081633515
331   0  1   5.511956758992   8.367169289709  -0.198073744820
332   0  1   5.511906760767  -8.763262558281   2.656934153737
333   0  1   5.511956790230  -8.763316751370  -0.198073734878
334   0  1   5.510434050826  -5.906581435980   2.656530455793
335   0  1   5.509626704091  -5.905774093294   5.509626639274
336   0  1   5.509626716668  -5.905774099708  -5.905774124645
337   0  1   5.510434061749  -5.906581442530  -3.052677925969
338   0  1   5.510447302152  -5.906594685407  -0.198073732085
339   0  1   5.510434040693  -3.052677905614   5.510433989039
340   0  1   5.511906767462  -3.053081623121   8.367115115103
341   0  1   5.510434060699  -3.052677913071  -5.906581484121
342   0  1   5.510447283331  -0.198073734265   5.510447243014
343   0  1   5.511956789571  -0.198073717836   8.367169303484
344   0  1   5.511956790922  -0.198073728655  -8.763316802003
345   0  1   5.510447305517  -0.198073727341  -5.906594737440
346   0  1   8.367648230998   2.657054955642   2.657054944891
347   0  1   8.367115161580   2.656934163465   5.511906677107
348   0  1   8.367115175843   2.656934161687  -5.908054188299
349   0  1   8.367648241448   2.657054961259  -3.053202441656
350   0  1   8.367768166094   2.657104066778  -0.198073743307
351   0  1   8.367115145196   5.511906688146   2.656934135164
352   0  1   8.367115158624   5.511906693525  -3.053081637241
353   0  1   8.367169341478   5.511956710730  -0.198073743417
354   0  1   8.367115175006  -5.908054155482   2.656934158257
355   0  1   8.367115177675  -5.908054152222  -3.053081624748
356   0  1   8.367169370377  -5.908104176228  -0.198073729519
357   0  1   8.367648246519  -3.053202410176   2.657054957593
358   0  1   8.367115172560  -3.053081612392   5.511906690971
359   0  1   8.367115179580  -3.053081618036  -5.908054183543
360   0  1   8.367648251465  -3.053202416866  -3.053202434198
361   0  1   8.367768179300  -3.053251521610  -0.198073732917
362   0  1   8.367768172149  -0.198073724246   2.657104063962
363   0  1   8.367169362737  -0.198073725958   5.511956711554
364   0  1   8.367169371685  -0.198073730660  -5.908104212355
365   0  1   8.367768179185  -0.198073728501  -3.053251552405
366   0  1   8.368172186900  -0.198073726472  -0.198073740481
367   0  1  -8.763795619789   2.657054981285   2.657054947816
368   0  1  -8.763262542741   2.656934180541   5.511906698550
369   0  1  -8.763795616283   2.657054978545  -3.053202463950
370   0  1  -8.763915551492   2.657104090091  -0.198073760523
371   0  1  -8.763262538135   5.511906722541   2.656934139975
372   0  1  -8.763316729912   5.511956747319  -0.198073762855
373   0  1  -8.763316728446  -5.908104187285  -0.198073739278
374   0  1  -8.763795619530  -3.053202423256   2.657054960640
375   0  1  -8.763795616127  -3.053202421895  -3.053202450682
376   0  1  -8.763915552924  -3.053251532321  -0.198073745030
377   0  1  -8.763915554913  -0.198073721918   2.657104066030
378   0  1  -8.763316738678  -0.198073722588   5.511956727598
379   0  1  -8.763316734084  -0.198073725255  -5.908104228602
380   0  1  -8.763915553083  -0.198073725038  -3.053251571719
381   0  1  -8.764319569010  -0.198073722418  -0.198073753657
382   0  1  -5.906581438951   2.656530474607   5.510434000995
383   0  1  -5.908054142296   2.656934180883   8.367115123510
384   0  1  -5.906581426719   2.656530467540  -5.906581507151
385   0  1  -5.906581428086   5.510434013950   2.656530436759
386   0  1  -5.905774079736   5.509626670181   5.509626636007
387   0  1  -5.905774072190   5.509626669865  -5.905774154010
388   0  1  -5.906581425453   5.510434015010  -3.052677961177
389   0  1  -5.906594675858   5.510447259889  -0.198073762343
390   0  1  -5.908054122708   8.367115128499   2.656934136741
391   0  1  -5.908054119452   8.367115134659  -3.053081657562
392   0  1  -5.908104145904   8.367169323796  -0.198073762506
393   0  1  -5.908104143234  -8.763316763111  -0.198073739827
394   0  1  -5.906581425074  -5.906581461226   2.656530457039
395   0  1  -5.905774075523  -5.905774115383   5.509626656612
396   0  1  -5.905774055837  -5.905774106899  -5.905774135382
397   0  1  -5.906581414629  -5.906581452226  -3.052677938353
398   0  1  -5.906594673245  -5.906594705164  -0.198073743080
399   0  1  -5.906581437485  -3.052677921453   5.510434013237
400   0  1  -5.908054139768  -3.053081626772   8.367115133290
401   0  1  -5.906581417871  -3.052677917379  -5.906581495384
402   0  1  -5.906594690857  -0.198073727379   5.510447258953
403   0  1  -5.908104167208  -0.198073724046   8.367169326831
404   0  1  -5.908104148691  -0.198073727584  -8.763316811872
405   0  1  -5.906594674408  -0.198073727751  -5.906594751102
406   0  1  -3.053202415343   2.657054996343   8.367648214570
407   0  1  -3.053202385216   2.657054974491  -8.763795697974
408   0  1  -3.052677898552   5.510434011624   5.510433981084
409   0  1  -3.053081605556   5.511906738479   8.367115120772
410   0  1  -3.052677882873   5.510434013393  -5.906581503926
411   0  1  -3.053202386208   8.367648205603   2.657054935010
412   0  1  -3.053081582797   8.367115135734   5.511906679457
413   0  1  -3.053081570178   8.367115131935  -5.908054198457
414   0  1  -3.053202378918   8.367648202884  -3.053202459751
415   0  1  -3.053251493100   8.367768132341  -0.198073759568
416   0  1  -3.053202380602  -8.763795637159   2.657054954935
417   0  1  -3.053202373130  -8.763795637230  -3.053202441386
418   0  1  -3.053251490052  -8.763915569286  -0.198073743885
419   0  1  -3.052677887677  -5.906581453375   5.510434010205
420   0  1  -3.053081583667  -5.908054164548   8.367115131021
421   0  1  -3.052677865031  -5.906581450502  -5.906581485729
422   0  1  -3.053202404133  -3.053202435884   8.367648237182
423   0  1  -3.053202368728  -3.053202419333  -8.763795690010
424   0  1  -3.053251523252  -0.198073718439   8.367768186708
425   0  1  -3.053251486792  -0.198073725691  -8.763915629244
426   0  1  -0.198073721937   2.657104133987   8.367768148093
427   0  1  -0.198073679378   2.657104085470  -8.763915628100
428   0  1  -0.198073723711   5.510447255731   5.510447233929
429   0  1  -0.198073698606   5.511956763769   8.367169300962
430   0  1  -0.198073679586   5.511956737166  -8.763316806403
431   0  1  -0.198073685992   5.510447252112  -5.906594749982
432   0  1  -0.198073694559   8.367768123485   2.657104046940
433   0  1  -0.198073696213   8.367169320554   5.511956698642
434   0  1  -0.198073672957   8.367169312664  -5.908104220699
435   0  1  -0.198073681892   8.367768120416  -3.053251566818
436   0  1  -0.198073692030   8.368172131889  -0.198073758206
437   0  1  -0.198073682212  -8.763915567338   2.657104067304
438   0  1  -0.198073681562  -8.763316755813   5.511956720246
439   0  1  -0.198073664240  -8.763316756631  -5.908104206161
440   0  1  -0.198073672448  -8.763915568700  -3.053251551196
441   0  1  -0.198073679827  -8.764319580950  -0.198073741916
442   0  1  -0.198073695502  -5.906594696907   5.510447256632
443   0  1  -0.198073680069  -5.908104186810   8.367169320605
444   0  1  -0.198073663184  -5.908104180509  -8.763316796145
445   0  1  -0.198073670092  -5.906594699709  -5.906594732059
446   0  1  -0.198073692019  -3.053251535342   8.367768184562
447   0  1  -0.198073667358  -3.053251531999  -8.763915621808
448   0  1  -0.198073688981  -0.198073691446   8.368172364320
449   0  1  -0.198073676325  -0.198073721596  -8.764319641687
450   0  1   1.229577912725   1.229577887623  12.650852178917
451   0  1   1.229577876720   1.229577830101 -13.046999685508
452   0  1   1.229561645969   4.084852883964  12.650792171032
453   0  1   1.229561640306   4.084852851040 -13.046939650371
454   0  1   1.229510490058   4.084719217541 -10.191457375340
455   0  1   1.229499102553   6.939763263327   9.795014021916
456   0  1   1.229548115239   6.940065626228  12.650708376102
457   0  1   1.229548114572   6.940065620318 -13.046855871114
458   0  1   1.229499108103   6.939763247642 -10.191161532567
459   0  1   1.229499090433   9.795014057095   6.939763208839
460   0  1   1.229518790776   9.795063259128   9.795063222144
461   0  1   1.229543346142   9.795303642535  12.650677012658
462   0  1   1.229543348875   9.795303643541 -13.046824514532
463   0  1   1.229518803184   9.795063259508 -10.191210730854
464   0  1   1.229499111806   9.795014051525  -7.335910720920
465   0  1   1.229510489268   9.795309879900  -4.480866692240
466   0  1   1.229577855742  12.650852204482   1.229577775415
467   0  1   1.229561624595  12.650792181386   4.084852793615
468   0  1   1.229548103428  12.650708404005   6.940065574101
469   0  1   1.229543341750  12.650677041256   9.795303609235
470   0  1   1.229545072393  12.650718651474  12.650718621388
471   0  1   1.229545075584  12.650718652324 -13.046866118879
472   0  1   1.229543353693  12.650677047607 -10.191451109857
473   0  1   1.229548122684  12.650708405724  -7.336213076954
474   0  1   1.229561640904  12.650792182078  -4.481000302618
475   0  1   1.229577861067  12.650852205933  -1.625725289396
476   0  1   1.229577860066 -13.046999640264   1.229577785672
477   0  1   1.229561629051 -13.046939619801   4.084852802468
478   0  1   1.229548107479 -13.046855845558   6.940065577749
479   0  1   1.229543344637 -13.046824487637   9.795303609739
480   0  1   1.229545075086 -13.046866087518  12.650718620033
481   0  1   1.229545079574 -13.046866082923 -13.046866117521
482   0  1   1.229543356665 -13.046824476706 -10.191451106567
483   0  1   1.229548124668 -13.046855833664  -7.336213074012
484   0  1   1.229561644772 -13.046939605819  -4.481000297095
485   0  1   1.229577865196 -13.046999634357  -1.625725280552
486   0  1   1.229510481784 -10.191457324067   4.084719195034
487   0  1   1.229499100982 -10.191161494036   6.939763222537
488   0  1   1.229518797692 -10.191210705468   9.795063229908
489   0  1   1.229543351986 -10.191451087878  12.650677015601
490   0  1   1.229543355245 -10.191451087041 -13.046824511694
491   0  1   1.229518808737 -10.191210699752 -10.191210724470
492   0  1   1.229499118397 -10.191161492637  -7.335910714432
493   0  1   1.229510497699 -10.191457323175  -4.480866678367
494   0  1   1.229499107867  -7.335910698237   9.795014037514
495   0  1   1.229548121783  -7.336213063032  12.650708377172
496   0  1   1.229548122949  -7.336213060526 -13.046855875528
497   0  1   1.229499118882  -7.335910694174 -10.191161528081
498   0  1   1.229510493418  -4.480866664824   9.795309889724
499   0  1   1.229561644723  -4.481000274673  12.650792152681
500   0  1   1.229561643142  -4.481000275918 -13.046939663498
501   0  1   1.229510496732  -4.480866664510 -10.191457375038
502   0  1   1.229577876034  -1.625725216375  12.650852160103
503   0  1   1.229577871775  -1.625725244662 -13.046999694914
504   0  1   4.084852918539   1.229561610358  12.650792162918
505   0  1   4.084852900521   1.229561593616 -13.046939654667
506   0  1   4.084719274978   1.229510438964 -10.191457375351
507   0  1   4.084645480515   4.084645446556   9.795187893482
508   0  1   4.084814997808   4.084814953133  12.650756943985
509   0  1   4.084814962744   4.084814906415 -13.046904400169
510   0  1   4.084645482076   4.084645420701 -10.191335444471
511   0  1   4.084616821265   6.939724798839   9.794976691298
512   0  1   4.084779219202   6.940033708424  12.650693989075
513   0  1   4.084779216014   6.940033705765 -13.046841485543
514   0  1   4.084616827876   6.939724792389 -10.191124213819
515   0  1   4.084248401020   6.938928464110  -7.335075947967
516   0  1   4.084645448640   9.795187954339   4.084645376276
517   0  1   4.084616804024   9.794976736420   6.939724743382
518   0  1   4.084693417554   9.795058247125   9.795058202539
519   0  1   4.084773505075   9.795293287097  12.650675746339
520   0  1   4.084773509780   9.795293289435 -13.046823254866
521   0  1   4.084693430479   9.795058248740 -10.191205717196
522   0  1   4.084616823684   9.794976734553  -7.335872258821
523   0  1   4.084645469208   9.795187952835  -4.480792887347
524   0  1   4.084719251947   9.795309872077  -1.625657906519
525   0  1   4.084852873243  12.650792178090   1.229561551900
526   0  1   4.084814929695  12.650756933295   4.084814852991
527   0  1   4.084779194416  12.650694015346   6.940033653695
528   0  1   4.084773499075  12.650675781685   9.795293247422
529   0  1   4.084783798760  12.650718415668  12.650718384203
530   0  1   4.084783802549  12.650718418013 -13.046865887904
531   0  1   4.084773509505  12.650675783760 -10.191440751876
532   0  1   4.084779207719  12.650694017095  -7.336181157268
533   0  1   4.084814941078  12.650756933565  -4.480962354768
534   0  1   4.084852878995  12.650792176959  -1.625709053795
535   0  1   4.084852879238 -13.046939617803   1.229561559804
536   0  1   4.084814934814 -13.046904378570   4.084814861317
537   0  1   4.084779197338 -13.046841463516   6.940033660209
538   0  1   4.084773501733 -13.046823229362   9.795293251010
539   0  1   4.084783803589 -13.046865864069  12.650718386248
540   0  1   4.084783809097 -13.046865861040 -13.046865884877
541   0  1   4.084773514610 -13.046823226467 -10.191440749479
542   0  1   4.084779213331 -13.046841459003  -7.336181155349
543   0  1   4.084814947523 -13.046904370979  -4.480962351402
544   0  1   4.084852884821 -13.046939617113  -1.625709047461
545   0  1   4.084719265772 -10.191457322164   1.229510421749
546   0  1   4.084645467634 -10.191335398372   4.084645398433
547   0  1   4.084616816382 -10.191124180088   6.939724763536
548   0  1   4.084693426717 -10.191205691272   9.795058216255
549   0  1   4.084773513062 -10.191440733380  12.650675755295
550   0  1   4.084773518430 -10.191440731776 -13.046823250050
551   0  1   4.084693438809 -10.191205690980 -10.191205711642
552   0  1   4.084616834072 -10.191124179560  -7.335872252891
553   0  1   4.084645483341 -10.191335398920  -4.480792881056
554   0  1   4.084719272366 -10.191457323446  -1.625657896257
555   0  1   4.084248395656  -7.335075910541   6.938928451448
556   0  1   4.084616824153  -7.335872238602   9.794976716792
557   0  1   4.084779213153  -7.336181145952  12.650693992944
558   0  1   4.084779214505  -7.336181142693 -13.046841487699
559   0  1   4.084616829993  -7.335872236087 -10.191124210543
560   0  1   4.084248407533  -7.335075913287  -7.335075939446
561   0  1   4.084645476627  -4.480792869579   9.795187951219
562   0  1   4.084814949772  -4.480962339188  12.650756909712
563   0  1   4.084814948407  -4.480962336080 -13.046904412490
564   0  1   4.084645479338  -4.480792867284 -10.191335444330
565   0  1   4.084719274043  -1.625657867649   9.795309878729
566   0  1   4.084852893477  -1.625709013510  12.650792146987
567   0  1   4.084852891976  -1.625709028504 -13.046939660334
568   0  1   4.084719272148  -1.625657888118 -10.191457374506
569   0  1   6.939763303153   1.229499063662   9.795014023123
570   0  1   6.940065671326   1.229548063027  12.650708370121
571   0  1   6.940065674546   1.229548055604 -13.046855876803
572   0  1   6.939763309524   1.229499045172 -10.191161536744
573   0  1   6.939724844637   4.084616775285   9.794976695366
574   0  1   6.940033760267   4.084779165945  12.650693990012
575   0  1   6.940033761819   4.084779155199 -13.046841487187
576   0  1   6.939724852860   4.084616767577 -10.191124216672
577   0  1   6.938928526543   4.084248339789  -7.335075948477
578   0  1   6.938768347520   6.938768308387   6.938768260716
579   0  1   6.939686987779   6.939686948191   9.794916109171
580   0  1   6.939997893078   6.939997846247  12.650672198429
581   0  1   6.939997902553   6.939997852794 -13.046819702347
582   0  1   6.939687001716   6.939686948545 -10.191063625841
583   0  1   6.938768371521   6.938768316021  -7.334915791504
584   0  1   6.938928509544   6.938928453183  -4.480395811174
585   0  1   6.939763278870   9.795014036199   1.229499024469
586   0  1   6.939724821794   9.794976723732   4.084616726085
587   0  1   6.939686978216   9.794916142453   6.939686895731
588   0  1   6.939863560184   9.795062049862   9.795062011668
589   0  1   6.940006500952   9.795282398727  12.650676171888
590   0  1   6.940006507298   9.795282401556 -13.046823680740
591   0  1   6.939863574546   9.795062059392 -10.191209523547
592   0  1   6.939686995414   9.794916150711  -7.335834408892
593   0  1   6.939724835478   9.794976728107  -4.480764232552
594   0  1   6.939763283209   9.795014039775  -1.625646519251
595   0  1   6.940065652234  12.650708393027   1.229548032833
596   0  1   6.940033733014  12.650694009309   4.084779120789
597   0  1   6.939997878115  12.650672225224   6.939997800325
598   0  1   6.940006496899  12.650676198735   9.795282358551
599   0  1   6.940035402647  12.650719743388  12.650719716724
600   0  1   6.940035409283  12.650719746726 -13.046867218340
601   0  1   6.940006510144  12.650676208206 -10.191429860578
602   0  1   6.939997892602  12.650672234258  -7.336145301696
603   0  1   6.940033743873  12.650694013343  -4.480926615225
604   0  1   6.940065653695  12.650708395733  -1.625695526183
605   0  1   6.940065657005 -13.046855848036   1.229548040892
606   0  1   6.940033738463 -13.046841464644   4.084779127996
607   0  1   6.939997881685 -13.046819684478   6.939997808915
608   0  1   6.940006499152 -13.046823662257   9.795282364560
609   0  1   6.940035406696 -13.046867198287  12.650719719087
610   0  1   6.940035411093 -13.046867197154 -13.046867217359
611   0  1   6.940006510456 -13.046823653682 -10.191429859169
612   0  1   6.939997893762 -13.046819676379  -7.336145299228
613   0  1   6.940033748101 -13.046841458813  -4.480926611058
614   0  1   6.940065660629 -13.046855842856  -1.625695519757
615   0  1   6.939763298221 -10.191161497240   1.229499040403
616   0  1   6.939724836611 -10.191124182749   4.084616748830
617   0  1   6.939686987577 -10.191063602096   6.939686918367
618   0  1   6.939863565860 -10.191209508983   9.795062028159
619   0  1   6.940006508451 -10.191429851167  12.650676180790
620   0  1   6.940006508721 -10.191429848430 -13.046823676917
621   0  1   6.939863572685 -10.191209503466 -10.191209519553
622   0  1   6.939686997338 -10.191063597222  -7.335834402140
623   0  1   6.939724845482 -10.191124180201  -4.480764224539
624   0  1   6.939763303794 -10.191161495537  -1.625646508714
625   0  1   6.938928519439  -7.335075912112   4.084248329388
626   0  1   6.938768368699  -7.334915767577   6.938768297058
627   0  1   6.939686995476  -7.335834397922   9.794916130855
628   0  1   6.939997895428  -7.336145293048  12.650672209415
629   0  1   6.939997895679  -7.336145292099 -13.046819703180
630   0  1   6.939686999352  -7.335834392968 -10.191063622151
631   0  1   6.938768377263  -7.334915765871  -7.334915785158
632   0  1   6.938928528234  -7.335075910499  -4.480395804335
633   0  1   6.938928522183  -4.480395791505   6.938928449099
634   0  1   6.939724847967  -4.480764221963   9.794976717750
635   0  1   6.940033750146  -4.480926606859  12.650693988466
636   0  1   6.940033750174  -4.480926604318 -13.046841491417
637   0  1   6.939724847655  -4.480764218866 -10.191124215437
638   0  1   6.938928527772  -4.480395792733  -7.335075943093
639   0  1   6.939763303710  -1.625646501620   9.795014031829
640   0  1   6.940065667050  -1.625695508799  12.650708368609
641   0  1   6.940065671267  -1.625695514393 -13.046855879596
642   0  1   6.939763308251  -1.625646506912 -10.191161535320
643   0  1   9.795014102169   1.229499052380   6.939763218519
644   0  1   9.795063306016   1.229518742326   9.795063226132
645   0  1   9.795303693756   1.229543284424  12.650677009582
646   0  1   9.795303696300   1.229543282614 -13.046824521023
647   0  1   9.795063315545   1.229518735062 -10.191210736826
648   0  1   9.795014109949   1.229499047017  -7.335910726614
649   0  1   9.795309940382   1.229510431465  -4.480866688682
650   0  1   9.795188000216   4.084645412590   4.084645385577
651   0  1   9.794976778488   4.084616767627   6.939724752540
652   0  1   9.795058290652   4.084693374988   9.795058208428
653   0  1   9.795293332931   4.084773455729  12.650675748306
654   0  1   9.795293337500   4.084773454900 -13.046823257802
655   0  1   9.795058300482   4.084693374270 -10.191205723845
656   0  1   9.794976789758   4.084616766816  -7.335872268046
657   0  1   9.795188008577   4.084645414522  -4.480792893980
658   0  1   9.795309928446   4.084719203451  -1.625657907050
659   0  1   9.795014087484   6.939763233131   1.229499022548
660   0  1   9.794976773270   6.939724777591   4.084616729276
661   0  1   9.794916190156   6.939686935728   6.939686900238
662   0  1   9.795062095800   6.939863518869   9.795062018179
663   0  1   9.795282440157   6.940006458536  12.650676175237
664   0  1   9.795282446887   6.940006463392 -13.046823681640
665   0  1   9.795062108390   6.939863526476 -10.191209528455
666   0  1   9.794916203109   6.939686945525  -7.335834415691
667   0  1   9.794976779808   6.939724785437  -4.480764239288
668   0  1   9.795014089074   6.939763235113  -1.625646524975
669   0  1   9.795063290440   9.795063244166   1.229518714065
670   0  1   9.795058278096   9.795058234409   4.084693337851
671   0  1   9.795062087063   9.795062045111   6.939863480776
672   0  1   9.795116073763   9.795116033107   9.795116003802
673   0  1   9.795290221435   9.795290180560  12.650687369016
674   0  1   9.795290227982   9.795290184550 -13.046834875633
675   0  1   9.795116090373   9.795116045612 -10.191263508421
676   0  1   9.795062105076   9.795062057555  -7.336010986292
677   0  1   9.795058289494   9.795058241304  -4.480840839023
678   0  1   9.795063294201   9.795063246235  -1.625666211485
679   0  1   9.795303684246  12.650677032367   1.229543269321
680   0  1   9.795293326170  12.650675768176   4.084773427111
681   0  1   9.795282435828  12.650676192112   6.940006425021
682   0  1   9.795290219547  12.650687389283   9.795290149375
683   0  1   9.795336133858  12.650726464329  12.650726439151
684   0  1   9.795336137450  12.650726469391 -13.046873940049
685   0  1   9.795290225797  12.650687405183 -10.191437647757
686   0  1   9.795282443123  12.650676210927  -7.336153916569
687   0  1   9.795293330210  12.650675781327  -4.480920914071
688   0  1   9.795303684738  12.650677038966  -1.625690751336
689   0  1   9.795303687717 -13.046824489076   1.229543276328
690   0  1   9.795293328155 -13.046823233727   4.084773434754
691   0  1   9.795282437445 -13.046823662665   6.940006432129
692   0  1   9.795290220141 -13.046834856465   9.795290154770
693   0  1   9.795336134004 -13.046873923865  12.650726445254
694   0  1   9.795290227533 -13.046834839422 -10.191437643333
695   0  1   9.795282446326 -13.046823643745  -7.336153913753
696   0  1   9.795293334423 -13.046823221838  -4.480920911328
697   0  1   9.795303689229 -13.046824487084  -1.625690747439
698   0  1   9.795063307918 -10.191210706945   1.229518732966
699   0  1   9.795058292827 -10.191205701332   4.084693360059
700   0  1   9.795062098923 -10.191209513934   6.939863499952
701   0  1   9.795116082257 -10.191263500682   9.795116017434
702   0  1   9.795290226218 -10.191437640634  12.650687379388
703   0  1   9.795290227516 -10.191437636346 -13.046834866102
704   0  1   9.795116091771 -10.191263489179 -10.191263502423
705   0  1   9.795062108150 -10.191209498558  -7.336010977821
706   0  1   9.795058298297 -10.191205689992  -4.480840829990
707   0  1   9.795063310073 -10.191210701425  -1.625666196929
708   0  1   9.795014109619  -7.335910693929   1.229499045989
709   0  1   9.794976792699  -7.335872239570   4.084616755494
710   0  1   9.794916205090  -7.335834397949   6.939686924535
711   0  1   9.795062105784  -7.336010979353   9.795062032322
712   0  1   9.795282447405  -7.336153917029  12.650676183554
713   0  1   9.795282445656  -7.336153915067 -13.046823677197
714   0  1   9.795062104195  -7.336010973878 -10.191209521954
715   0  1   9.794916202790  -7.335834393321  -7.335834404237
716   0  1   9.794976789176  -7.335872236251  -4.480764224748
717   0  1   9.795014108788  -7.335910692526  -1.625646507227
718   0  1   9.795309942189  -4.480866657719   1.229510426656
719   0  1   9.795188015002  -4.480792866796   4.084645405395
720   0  1   9.794976788914  -4.480764221747   6.939724769461
721   0  1   9.795058298204  -4.480840831241   9.795058221565
722   0  1   9.795293338380  -4.480920913025  12.650675753961
723   0  1   9.795293338152  -4.480920911122 -13.046823255707
724   0  1   9.795058299634  -4.480840828661 -10.191205718194
725   0  1   9.794976792334  -4.480764219113  -7.335872259814
726   0  1   9.795188016602  -4.480792865165  -4.480792883654
727   0  1   9.795309943160  -4.480866657924  -1.625657893429
728   0  1   9.795309941113  -1.625657883070   4.084719195524
729   0  1   9.795014106235  -1.625646502577   6.939763225558
730   0  1   9.795063309301  -1.625666196365   9.795063232060
731   0  1   9.795303695542  -1.625690746606  12.650677013355
732   0  1   9.795303696309  -1.625690747677 -13.046824520136
733   0  1   9.795063314354  -1.625666197675 -10.191210733932
734   0  1   9.795014110551  -1.625646504965  -7.335910725285
735   0  1   9.795309941886  -1.625657886736  -4.480866685346
736   0  1  12.650852253073   1.229577814332   1.229577786575
737   0  1  12.650792225823   1.229561586991   4.084852808632
738   0  1  12.650708446501   1.229548062296   6.940065586149
739   0  1  12.650677085493   1.229543289396   9.795303615412
740   0  1  12.650718692930   1.229545013019  12.650718618411
741   0  1  12.650718694977   1.229545012263 -13.046866126710
742   0  1  12.650677090484   1.229543291406 -10.191451122151
743   0  1  12.650708450204   1.229548063219  -7.336213090998
744   0  1  12.650792227608   1.229561586562  -4.481000310927
745   0  1  12.650852252412   1.229577814759  -1.625725288017
746   0  1  12.650792222357   4.084852834471   1.229561553107
747   0  1  12.650756977601   4.084814890791   4.084814861031
748   0  1  12.650694059508   4.084779154004   6.940033666572
749   0  1  12.650675822071   4.084773457012   9.795293256349
750   0  1  12.650718456199   4.084783753890  12.650718385551
751   0  1  12.650718456522   4.084783757573 -13.046865893997
752   0  1  12.650675825339   4.084773463142 -10.191440763845
753   0  1  12.650694059061   4.084779161116  -7.336181175142
754   0  1  12.650756976467   4.084814897367  -4.480962369499
755   0  1  12.650792222076   4.084852837054  -1.625709061158
756   0  1  12.650708443827   6.940065607820   1.229548028475
757   0  1  12.650694058541   6.940033688384   4.084779122341
758   0  1  12.650672273515   6.939997834986   6.939997808024
759   0  1  12.650676245815   6.940006455167   9.795282367210
760   0  1  12.650719786453   6.940035365095  12.650719720359
761   0  1  12.650719789993   6.940035371259 -13.046867222504
762   0  1  12.650676252842   6.940006470340 -10.191429872286
763   0  1  12.650672279329   6.939997852490  -7.336145315536
764   0  1  12.650694059254   6.940033702888  -4.480926630620
765   0  1  12.650708441782   6.940065613842  -1.625695538054
766   0  1  12.650677083884   9.795303633136   1.229543262985
767   0  1  12.650675823939   9.795293271918   4.084773426040
768   0  1  12.650676247352   9.795282383198   6.940006427657
769   0  1  12.650687439078   9.795290173569   9.795290154676
770   0  1  12.650726508884   9.795336097084  12.650726444456
771   0  1  12.650726511027   9.795336104599 -13.046873941189
772   0  1  12.650687442567   9.795290193767 -10.191437652653
773   0  1  12.650676248989   9.795282408545  -7.336153926396
774   0  1  12.650675824138   9.795293292989  -4.480920924051
775   0  1  12.650677083986   9.795303641555  -1.625690763067
776   0  1  12.650718690403  12.650718642701   1.229544997289
777   0  1  12.650718457358  12.650718404683   4.084783729433
778   0  1  12.650719786547  12.650719734757   6.940035337985
779   0  1  12.650726506057  12.650726460621   9.795336069108
780   0  1  12.650726505986  12.650726483153 -10.191483562144
781   0  1  12.650719786229  12.650719762828  -7.336182825134
782   0  1  12.650718457238  12.650718425802  -4.480931211775
783   0  1  12.650718689508  12.650718651000  -1.625692476130
784   0  1  12.650718695031 -13.046866099020   1.229545002772
785   0  1  12.650718460736 -13.046865872771   4.084783737587
786   0  1  12.650719790405 -13.046867208506   6.940035345153
787   0  1  12.650726509884 -13.046873928054   9.795336075383
788   0  1  12.650719794725 -13.046867181602  -7.336182820427
789   0  1  12.650718462981 -13.046865851943  -4.480931208064
790   0  1  12.650718695613 -13.046866091980  -1.625692471429
791   0  1  12.650677093823 -10.191451093422   1.229543281733
792   0  1  12.650675830749 -10.191440743564   4.084773444878
793   0  1  12.650676253117 -10.191429860003   6.940006445360
794   0  1  12.650687445840 -10.191437645270   9.795290167712
795   0  1  12.650726513458 -10.191483554315  12.650726453516
796   0  1  12.650687451550 -10.191437625085 -10.191437642007
797   0  1  12.650676259971 -10.191429835588  -7.336153914576
798   0  1  12.650675834234 -10.191440725474  -4.480920911522
799   0  1  12.650677093952 -10.191451085808  -1.625690745517
800   0  1  12.650708452003  -7.336213065009   1.229548053644
801   0  1  12.650694064259  -7.336181157061   4.084779144018
802   0  1  12.650672279251  -7.336145306923   6.939997827037
803   0  1  12.650676251662  -7.336153924150   9.795282379599
804   0  1  12.650719793510  -7.336182825120  12.650719727811
805   0  1  12.650719794698  -7.336182819729 -13.046867215054
806   0  1  12.650676257267  -7.336153910396 -10.191429862664
807   0  1  12.650672284529  -7.336145288614  -7.336145301029
808   0  1  12.650694067305  -7.336181140162  -4.480926610274
809   0  1  12.650708452336  -7.336213058815  -1.625695513993
810   0  1  12.650792229708  -4.481000282358   1.229561572247
811   0  1  12.650756983274  -4.480962345548   4.084814878042
812   0  1  12.650694063501  -4.480926613143   6.940033678024
813   0  1  12.650675827430  -4.480920916839   9.795293263762
814   0  1  12.650718464578  -4.480931211202  12.650718391394
815   0  1  12.650718462816  -4.480931208180 -13.046865888097
816   0  1  12.650675829437  -4.480920908752 -10.191440755803
817   0  1  12.650694064675  -4.480926603564  -7.336181162165
818   0  1  12.650756982975  -4.480962337113  -4.480962355286
819   0  1  12.650792230167  -4.481000278901  -1.625709044379
820   0  1  12.650852256126  -1.625725257380   1.229577792753
821   0  1  12.650792228913  -1.625709031685   4.084852814934
822   0  1  12.650708449952  -1.625695511814   6.940065590206
823   0  1  12.650677090331  -1.625690744733   9.795303616863
824   0  1  12.650718696991  -1.625692469811  12.650718620760
825   0  1  12.650718699582  -1.625692468041 -13.046866123808
826   0  1  12.650677095133  -1.625690740960 -10.191451117159
827   0  1  12.650708454904  -1.625695507512  -7.336213086811
828   0  1  12.650792232220  -1.625709029799  -4.481000307223
829   0  1  12.650852258295  -1.625725258068  -1.625725282697
830   0  1 -13.046999605038   1.229577815259   1.229577786813
831   0  1 -13.046939581123   1.229561580884   4.084852813264
832   0  1 -13.046855806178   1.229548055319   6.940065592165
833   0  1 -13.046824449358   1.229543288408   9.795303620981
834   0  1 -13.046866055691   1.229545019254  12.650718623795
835   0  1 -13.046866054087   1.229545022741 -13.046866124971
836   0  1 -13.046824446157   1.229543300452 -10.191451123489
837   0  1 -13.046855805266   1.229548070789  -7.336213095176
838   0  1 -13.046939581611   1.229561596819  -4.481000316117
839   0  1 -13.046999605950   1.229577822509  -1.625725290760
840   0  1 -13.046939582185   4.084852836556   1.229561552428
841   0  1 -13.046904337825   4.084814887967   4.084814866585
842   0  1 -13.046841422427   4.084779148829   6.940033672882
843   0  1 -13.046823189069   4.084773455323   9.795293263105
844   0  1 -13.046865824150   4.084783757501  12.650718389172
845   0  1 -13.046865822806   4.084783762780 -13.046865894451
846   0  1 -13.046823188246   4.084773467146 -10.191440766464
847   0  1 -13.046841422089   4.084779166374  -7.336181179711
848   0  1 -13.046904338944   4.084814903209  -4.480962374574
849   0  1 -13.046939581773   4.084852842280  -1.625709064260
850   0  1 -13.046855804987   6.940065617200   1.229548028945
851   0  1 -13.046841419899   6.940033695128   4.084779127529
852   0  1 -13.046819638762   6.939997838973   6.939997816105
853   0  1 -13.046823614521   6.940006460997   9.795282374439
854   0  1 -13.046867156500   6.940035375053  12.650719725676
855   0  1 -13.046867154391   6.940035378394 -13.046867218553
856   0  1 -13.046823613367   6.940006475805 -10.191429873981
857   0  1 -13.046819637615   6.939997859593  -7.336145322122
858   0  1 -13.046841421336   6.940033712777  -4.480926639598
859   0  1 -13.046855805237   6.940065626335  -1.625695542748
860   0  1 -13.046824445828   9.795303646588   1.229543261070
861   0  1 -13.046823184984   9.795293287467   4.084773429885
862   0  1 -13.046823613121   9.795282397662   6.940006435278
863   0  1 -13.046834809322   9.795290183946   9.795290163493
864   0  1 -13.046873877234   9.795336103110  12.650726453605
865   0  1 -13.046834806300   9.795290205886 -10.191437652085
866   0  1 -13.046823611420   9.795282422596  -7.336153933407
867   0  1 -13.046823185341   9.795293306068  -4.480920934375
868   0  1 -13.046824444894   9.795303652515  -1.625690769772
869   0  1 -13.046866049473  12.650718649482   1.229544992933
870   0  1 -13.046865816069  12.650718411748   4.084783731659
871   0  1 -13.046867150851  12.650719741890   6.940035346100
872   0  1 -13.046873873011  12.650726465436   9.795336079399
873   0  1 -13.046867149289  12.650719770679  -7.336182830066
874   0  1 -13.046865817026  12.650718433428  -4.480931221912
875   0  1 -13.046866049277  12.650718655108  -1.625692481549
876   0  1 -13.046866047691 -13.046866094606   1.229545004283
877   0  1 -13.046865815007 -13.046865869532   4.084783741908
878   0  1 -13.046867149153 -13.046867204068   6.940035352109
879   0  1 -13.046867146828 -13.046867178786  -7.336182823633
880   0  1 -13.046865814816 -13.046865849807  -4.480931211673
881   0  1 -13.046866046211 -13.046866088583  -1.625692473691
882   0  1 -13.046824438759 -10.191451094400   1.229543285000
883   0  1 -13.046823179717 -10.191440742843   4.084773450945
884   0  1 -13.046823607094 -10.191429858060   6.940006448172
885   0  1 -13.046834801152 -10.191437644175   9.795290170912
886   0  1 -13.046834799517 -10.191437621580 -10.191437644706
887   0  1 -13.046823604147 -10.191429833454  -7.336153915078
888   0  1 -13.046823178208 -10.191440724230  -4.480920910620
889   0  1 -13.046824439117 -10.191451087795  -1.625690743866
890   0  1 -13.046855800202  -7.336213064014   1.229548054801
891   0  1 -13.046841415831  -7.336181151195   4.084779148225
892   0  1 -13.046819632826  -7.336145301318   6.939997831429
893   0  1 -13.046823609316  -7.336153921382   9.795282382978
894   0  1 -13.046867150375  -7.336182824544  12.650719730153
895   0  1 -13.046867148280  -7.336182816527 -13.046867216517
896   0  1 -13.046823606539  -7.336153903889 -10.191429864909
897   0  1 -13.046819630994  -7.336145282578  -7.336145301777
898   0  1 -13.046841413675  -7.336181137960  -4.480926610248
899   0  1 -13.046855798334  -7.336213058877  -1.625695513178
900   0  1 -13.046939578529  -4.481000284942   1.229561570861
901   0  1 -13.046904334090  -4.480962349960   4.084814880288
902   0  1 -13.046841418171  -4.480926617770   6.940033683079
903   0  1 -13.046823184307  -4.480920918411   9.795293271035
904   0  1 -13.046865819883  -4.480931208767  12.650718395512
905   0  1 -13.046865817717  -4.480931205683 -13.046865887916
906   0  1 -13.046823182628  -4.480920908646 -10.191440758228
907   0  1 -13.046841415326  -4.480926603734  -7.336181165683
908   0  1 -13.046904332875  -4.480962336398  -4.480962357787
909   0  1 -13.046939577436  -4.481000278762  -1.625709045524
910   0  1 -13.046999605604  -1.625725262037   1.229577791670
911   0  1 -13.046939580731  -1.625709040661   4.084852817450
912   0  1 -13.046855805991  -1.625695520649   6.940065596364
913   0  1 -13.046824447685  -1.625690750286   9.795303623712
914   0  1 -13.046866054852  -1.625692470406  12.650718627963
915   0  1 -13.046866052842  -1.625692466507 -13.046866120761
916   0  1 -13.046824445867  -1.625690740725 -10.191451118092
917   0  1 -13.046855802964  -1.625695507567  -7.336213091064
918   0  1 -13.046939580299  -1.625709028141  -4.481000313434
919   0  1 -13.046999603474  -1.625725257832  -1.625725286187
920   0  1 -10.191457304075   1.229510443742   4.084719198158
921   0  1 -10.191161469674   1.229499059135   6.939763236599
922   0  1 -10.191210672910   1.229518745407   9.795063245146
923   0  1 -10.191451055665   1.229543292780  12.650677022339
924   0  1 -10.191451054131   1.229543292561 -13.046824516145
925   0  1 -10.191210668454   1.229518748453 -10.191210743136
926   0  1 -10.191161465587   1.229499060522  -7.335910739021
927   0  1 -10.191457302572   1.229510443879  -4.480866706113
928   0  1 -10.191457301496   4.084719226123   1.229510405156
929   0  1 -10.191335374215   4.084645429663   4.084645398298
930   0  1 -10.191124150786   4.084616777215   6.939724775489
931   0  1 -10.191205657836   4.084693384404   9.795058231483
932   0  1 -10.191440694046   4.084773465903  12.650675761736
933   0  1 -10.191440692179   4.084773468149 -13.046823257714
934   0  1 -10.191205651889   4.084693387726 -10.191205730259
935   0  1 -10.191124145026   4.084616784062  -7.335872280742
936   0  1 -10.191335371081   4.084645434986  -4.480792911762
937   0  1 -10.191457300431   4.084719227831  -1.625657924289
938   0  1 -10.191161464451   6.939763258171   1.229499020201
939   0  1 -10.191124149244   6.939724796976   4.084616743812
940   0  1 -10.191063564007   6.939686950133   6.939686923866
941   0  1 -10.191209465309   6.939863529359   9.795062039927
942   0  1 -10.191429803672   6.940006472524  12.650676188617
943   0  1 -10.191429805099   6.940006476276 -13.046823677589
944   0  1 -10.191209464206   6.939863540763 -10.191209535169
945   0  1 -10.191063563416   6.939686964770  -7.335834429290
946   0  1 -10.191124148725   6.939724810099  -4.480764258341
947   0  1 -10.191161463905   6.939763264003  -1.625646540617
948   0  1 -10.191210662335   9.795063262576   1.229518714649
949   0  1 -10.191205652618   9.795058246148   4.084693350454
950   0  1 -10.191209460962   9.795062054248   6.939863500913
951   0  1 -10.191263446985   9.795116042964   9.795116023664
952   0  1 -10.191437586299   9.795290192696  12.650687383592
953   0  1 -10.191437585024   9.795290199532 -13.046834868996
954   0  1 -10.191263441766   9.795116061942 -10.191263513554
955   0  1 -10.191209455822   9.795062076654  -7.336010998665
956   0  1 -10.191205649435   9.795058265950  -4.480840853987
957   0  1 -10.191210661011   9.795063271156  -1.625666222551
958   0  1 -10.191451040146  12.650677046723   1.229543271072
959   0  1 -10.191440684661  12.650675779767   4.084773438021
960   0  1 -10.191429795838  12.650676203094   6.940006442628
961   0  1 -10.191437580471  12.650687399959   9.795290166149
962   0  1 -10.191483491303  12.650726475943  12.650726451165
963   0  1 -10.191437574760  12.650687422317 -10.191437648806
964   0  1 -10.191429789761  12.650676229629  -7.336153927233
965   0  1 -10.191440680237  12.650675800206  -4.480920924946
966   0  1 -10.191451038735  12.650677053529  -1.625690756881
967   0  1 -10.191451039316 -13.046824488372   1.229543277675
968   0  1 -10.191440682979 -13.046823235106   4.084773444601
969   0  1 -10.191429792762 -13.046823663374   6.940006449152
970   0  1 -10.191437577459 -13.046834853921   9.795290172328
971   0  1 -10.191437575102 -13.046834832520 -10.191437644666
972   0  1 -10.191429790774 -13.046823636401  -7.336153922038
973   0  1 -10.191440680460 -13.046823213640  -4.480920919815
974   0  1 -10.191451037256 -13.046824481949  -1.625690753000
975   0  1 -10.191210658809 -10.191210710758   1.229518733254
976   0  1 -10.191205646377 -10.191205705517   4.084693367393
977   0  1 -10.191209454695 -10.191209518546   6.939863514199
978   0  1 -10.191263440054 -10.191263502490   9.795116037212
979   0  1 -10.191437579089 -10.191437637748  12.650687393549
980   0  1 -10.191437578649 -10.191437631612 -13.046834860801
981   0  1 -10.191263438920 -10.191263482251 -10.191263504622
982   0  1 -10.191209453575 -10.191209493307  -7.336010984598
983   0  1 -10.191205644989 -10.191205686622  -4.480840838329
984   0  1 -10.191210658308 -10.191210702989  -1.625666203509
985   0  1 -10.191161457192  -7.335910706463   1.229499046082
986   0  1 -10.191124140812  -7.335872255565   4.084616763305
987   0  1 -10.191063554376  -7.335834414115   6.939686939219
988   0  1 -10.191209455594  -7.336010989299   9.795062048741
989   0  1 -10.191429796083  -7.336153920552  12.650676196120
990   0  1 -10.191429793898  -7.336153912846 -13.046823670982
991   0  1 -10.191209452172  -7.336010972974 -10.191209523839
992   0  1 -10.191063550607  -7.335834393022  -7.335834412054
993   0  1 -10.191124136473  -7.335872239096  -4.480764234974
994   0  1 -10.191161456976  -7.335910699001  -1.625646514091
995   0  1 -10.191457298180  -4.480866668833   1.229510424369
996   0  1 -10.191335372810  -4.480792878818   4.084645412586
997   0  1 -10.191124148537  -4.480764232267   6.939724784265
998   0  1 -10.191205654633  -4.480840838730   9.795058237760
999   0  1 -10.191440692470  -4.480920916435  12.650675765693
1000  0  1 -10.191440688120  -4.480920911380 -13.046823250197
1001  0  1 -10.191205646081  -4.480840827416 -10.191205721661
1002  0  1 -10.191124138959  -4.480764220520  -7.335872267504
1003  0  1 -10.191335366777  -4.480792869603  -4.480792894471
1004  0  1 -10.191457299072  -4.480866665404  -1.625657904628
1005  0  1 -10.191457303841  -1.625657887410   4.084719202622
1006  0  1 -10.191161469986  -1.625646506867   6.939763239975
1007  0  1 -10.191210671338  -1.625666196892   9.795063246114
1008  0  1 -10.191451054227  -1.625690743810  12.650677024394
1009  0  1 -10.191451052811  -1.625690741645 -13.046824514178
1010  0  1 -10.191210667593  -1.625666192665 -10.191210738140
1011  0  1 -10.191161466122  -1.625646501592  -7.335910733678
1012  0  1 -10.191457303498  -1.625657883976  -4.480866701248
1013  0  1  -7.335910672632   1.229499058192   9.795014049590
1014  0  1  -7.336213028426   1.229548060085  12.650708385157
1015  0  1  -7.336213022418   1.229548057838 -13.046855878834
1016  0  1  -7.335910659207   1.229499053058 -10.191161544451
1017  0  1  -7.335075891475   4.084248359499   6.938928458928
1018  0  1  -7.335872211750   4.084616783045   9.794976726982
1019  0  1  -7.336181109557   4.084779163796  12.650693999175
1020  0  1  -7.336181104898   4.084779162483 -13.046841492138
1021  0  1  -7.335872200786   4.084616777579 -10.191124226551
1022  0  1  -7.335075884155   4.084248355957  -7.335075965341
1023  0  1  -7.335075885088   6.938928480354   4.084248318715
1024  0  1  -7.334915733722   6.938768332247   6.938768299771
1025  0  1  -7.335834356384   6.939686959953   9.794916140705
1026  0  1  -7.336145247041   6.939997857638  12.650672218340
1027  0  1  -7.336145245595   6.939997858569 -13.046819703573
1028  0  1  -7.335834349978   6.939686961411 -10.191063637264
1029  0  1  -7.334915728605   6.938768337141  -7.334915809218
1030  0  1  -7.335075881024   6.938928486665  -4.480395837700
1031  0  1  -7.335910652405   9.795014063137   1.229499020804
1032  0  1  -7.335872193669   9.794976747112   4.084616742168
1033  0  1  -7.335834345386   9.794916161918   6.939686922788
1034  0  1  -7.336010919161   9.795062065902   9.795062039686
1035  0  1  -7.336153856038   9.795282410508  12.650676189817
1036  0  1  -7.336153856442   9.795282413525 -13.046823674270
1037  0  1  -7.336010920584   9.795062073241 -10.191209529131
1038  0  1  -7.335834346572   9.794916170691  -7.335834425184
1039  0  1  -7.335872195395   9.794976751681  -4.480764252525
1040  0  1  -7.335910653392   9.795014066643  -1.625646536314
1041  0  1  -7.336213010728  12.650708406164   1.229548035594
1042  0  1  -7.336181095890  12.650694016203   4.084779131687
1043  0  1  -7.336145239150  12.650672232178   6.939997822473
1044  0  1  -7.336153852100  12.650676206545   9.795282381018
1045  0  1  -7.336182753886  12.650719754561  12.650719729737
1046  0  1  -7.336182751432  12.650719757748 -13.046867212910
1047  0  1  -7.336153845241  12.650676222479 -10.191429866148
1048  0  1  -7.336145229804  12.650672249154  -7.336145311514
1049  0  1  -7.336181089078  12.650694029719  -4.480926626740
1050  0  1  -7.336213008423  12.650708410786  -1.625695531900
1051  0  1  -7.336213008651 -13.046855841969   1.229548042158
1052  0  1  -7.336181091182 -13.046841462618   4.084779138807
1053  0  1  -7.336145234922 -13.046819681214   6.939997827122
1054  0  1  -7.336153847483 -13.046823653969   9.795282385573
1055  0  1  -7.336182748991 -13.046867196175  12.650719735572
1056  0  1  -7.336182747747 -13.046867188421 -13.046867209585
1057  0  1  -7.336153842518 -13.046823640160 -10.191429862175
1058  0  1  -7.336145227401 -13.046819662430  -7.336145307203
1059  0  1  -7.336181086888 -13.046841450163  -4.480926621189
1060  0  1  -7.336213006661 -13.046855839793  -1.625695526791
1061  0  1  -7.335910648486 -10.191161504581   1.229499040256
1062  0  1  -7.335872188292 -10.191124194359   4.084616759556
1063  0  1  -7.335834339431 -10.191063612893   6.939686935221
1064  0  1  -7.336010912111 -10.191209514721   9.795062049468
1065  0  1  -7.336153845005 -10.191429852226  12.650676199385
1066  0  1  -7.336153841481 -10.191429849113 -13.046823666453
1067  0  1  -7.336010906047 -10.191209500281 -10.191209520971
1068  0  1  -7.335834332801 -10.191063596040  -7.335834411712
1069  0  1  -7.335872184417 -10.191124181504  -4.480764236761
1070  0  1  -7.335910646612 -10.191161500454  -1.625646518783
1071  0  1  -7.335075882791  -7.335075924531   4.084248339471
1072  0  1  -7.334915730391  -7.334915780387   6.938768317334
1073  0  1  -7.335834349039  -7.335834406387   9.794916148534
1074  0  1  -7.336145236947  -7.336145300988  12.650672224339
1075  0  1  -7.336145228259  -7.336145296237 -13.046819697157
1076  0  1  -7.335834329430  -7.335834395825 -10.191063626528
1077  0  1  -7.334915709629  -7.334915769516  -7.334915793155
1078  0  1  -7.335075867522  -7.335075919815  -4.480395816257
1079  0  1  -7.335075888306  -4.480395806200   6.938928470859
1080  0  1  -7.335872204911  -4.480764231602   9.794976736419
1081  0  1  -7.336181101483  -4.480926612647  12.650694003771
1082  0  1  -7.336181092543  -4.480926607008 -13.046841487657
1083  0  1  -7.335872186538  -4.480764221702 -10.191124218604
1084  0  1  -7.335075870555  -4.480395798085  -7.335075953015
1085  0  1  -7.335910672152  -1.625646506359   9.795014055059
1086  0  1  -7.336213026134  -1.625695513026  12.650708386381
1087  0  1  -7.336213017946  -1.625695512943 -13.046855877434
1088  0  1  -7.335910654973  -1.625646506304 -10.191161541748
1089  0  1  -4.480866644950   1.229510453401   9.795309898113
1090  0  1  -4.481000244760   1.229561592940  12.650792161092
1091  0  1  -4.481000235434   1.229561583983 -13.046939662144
1092  0  1  -4.480866623276   1.229510434178 -10.191457383661
1093  0  1  -4.480792850277   4.084645441195   9.795187961550
1094  0  1  -4.480962307173   4.084814905400  12.650756920122
1095  0  1  -4.480962297532   4.084814896240 -13.046904412270
1096  0  1  -4.480792828853   4.084645426123 -10.191335453677
1097  0  1  -4.480395763372   6.938928484256   6.938928446735
1098  0  1  -4.480764186043   6.939724812836   9.794976725957
1099  0  1  -4.480926561440   6.940033712869  12.650693998209
1100  0  1  -4.480926557298   6.940033710423 -13.046841490785
1101  0  1  -4.480764172500   6.939724805176 -10.191124222954
1102  0  1  -4.480395753473   6.938928483190  -7.335075960869
1103  0  1  -4.480866622446   9.795309895104   1.229510402725
1104  0  1  -4.480792828806   9.795187969797   4.084645388892
1105  0  1  -4.480764174719   9.794976746499   6.939724764212
1106  0  1  -4.480840774453   9.795058259216   9.795058224170
1107  0  1  -4.480920848195   9.795293300131  12.650675760665
1108  0  1  -4.480920846957   9.795293301066 -13.046823252095
1109  0  1  -4.480840767044   9.795058261113 -10.191205722316
1110  0  1  -4.480764165402   9.794976751123  -7.335872270709
1111  0  1  -4.480792819128   9.795187971392  -4.480792904149
1112  0  1  -4.480866617621   9.795309896520  -1.625657920166
1113  0  1  -4.481000232410  12.650792183896   1.229561552355
1114  0  1  -4.480962293373  12.650756938932   4.084814863050
1115  0  1  -4.480926551508  12.650694021226   6.940033669209
1116  0  1  -4.480920847389  12.650675784009   9.795293263675
1117  0  1  -4.480931136050  12.650718422745  12.650718396759
1118  0  1  -4.480931135611  12.650718424141 -13.046865882465
1119  0  1  -4.480920839848  12.650675792869 -10.191440752393
1120  0  1  -4.480926542638  12.650694027174  -7.336181166635
1121  0  1  -4.480962283253  12.650756943483  -4.480962367113
1122  0  1  -4.481000227837  12.650792184835  -1.625709062345
1123  0  1  -4.481000229232 -13.046939620130   1.229561560166
1124  0  1  -4.480962288194 -13.046904376431   4.084814868436
1125  0  1  -4.480926547549 -13.046841463218   6.940033674844
1126  0  1  -4.480920843170 -13.046823229369   9.795293267524
1127  0  1  -4.480931134078 -13.046865861539  12.650718398806
1128  0  1  -4.480931130640 -13.046865858581 -13.046865880446
1129  0  1  -4.480920833514 -13.046823222497 -10.191440751226
1130  0  1  -4.480926536141 -13.046841452563  -7.336181162911
1131  0  1  -4.480962278808 -13.046904370718  -4.480962359946
1132  0  1  -4.481000227698 -13.046939614169  -1.625709053995
1133  0  1  -4.480866615629 -10.191457332356   1.229510418922
1134  0  1  -4.480792821342 -10.191335407384   4.084645404535
1135  0  1  -4.480764166429 -10.191124187226   6.939724778407
1136  0  1  -4.480840765349 -10.191205700865   9.795058234432
1137  0  1  -4.480920841287 -10.191440737049  12.650675766995
1138  0  1  -4.480920833475 -10.191440735204 -13.046823246062
1139  0  1  -4.480840751931 -10.191205690791 -10.191205714810
1140  0  1  -4.480764152054 -10.191124180435  -7.335872258885
1141  0  1  -4.480792810371 -10.191335402597  -4.480792887630
1142  0  1  -4.480866614103 -10.191457330282  -1.625657903481
1143  0  1  -4.480395755055  -7.335075925035   6.938928468104
1144  0  1  -4.480764171077  -7.335872248348   9.794976735723
1145  0  1  -4.480926546794  -7.336181148908  12.650694005792
1146  0  1  -4.480926536723  -7.336181143489 -13.046841484702
1147  0  1  -4.480764151516  -7.335872238162 -10.191124212547
1148  0  1  -4.480395735000  -7.335075916094  -7.335075946119
1149  0  1  -4.480792839488  -4.480792879466   9.795187972321
1150  0  1  -4.480962290382  -4.480962342771  12.650756922361
1151  0  1  -4.480962277278  -4.480962333183 -13.046904413419
1152  0  1  -4.480792810811  -4.480792866165 -10.191335447121
1153  0  1  -4.480866640048  -1.625657887936   9.795309904884
1154  0  1  -4.481000234626  -1.625709024488  12.650792156575
1155  0  1  -4.481000227491  -1.625709030366 -13.046939663989
1156  0  1  -4.480866616522  -1.625657886545 -10.191457381252
1157  0  1  -1.625725191391   1.229577842030  12.650852169466
1158  0  1  -1.625725204059   1.229577824306 -13.046999690373
1159  0  1  -1.625657860135   4.084719256097   9.795309886520
1160  0  1  -1.625708989267   4.084852863992  12.650792161440
1161  0  1  -1.625708984690   4.084852842679 -13.046939656468
1162  0  1  -1.625657840815   4.084719217539 -10.191457381108
1163  0  1  -1.625646466386   6.939763267883   9.795014035865
1164  0  1  -1.625695461285   6.940065626398  12.650708377277
1165  0  1  -1.625695458005   6.940065623395 -13.046855875101
1166  0  1  -1.625646452333   6.939763256430 -10.191161537080
1167  0  1  -1.625657847088   9.795309895149   4.084719176617
1168  0  1  -1.625646460770   9.795014063886   6.939763216669
1169  0  1  -1.625666142674   9.795063268292   9.795063229386
1170  0  1  -1.625690681298   9.795303649612  12.650677014983
1171  0  1  -1.625690678983   9.795303651681 -13.046824514722
1172  0  1  -1.625666131249   9.795063266639 -10.191210732397
1173  0  1  -1.625646443751   9.795014060813  -7.335910726860
1174  0  1  -1.625657833563   9.795309890139  -4.480866696011
1175  0  1  -1.625725211643  12.650852211210   1.229577776342
1176  0  1  -1.625708984905  12.650792185034   4.084852798644
1177  0  1  -1.625695458587  12.650708408031   6.940065578333
1178  0  1  -1.625690680354  12.650677049423   9.795303613836
1179  0  1  -1.625692396610  12.650718654773  12.650718623953
1180  0  1  -1.625692391393  12.650718655330 -13.046866119282
1181  0  1  -1.625690666428  12.650677049035 -10.191451109660
1182  0  1  -1.625695438996  12.650708408228  -7.336213080050
1183  0  1  -1.625708969984  12.650792185550  -4.481000305811
1184  0  1  -1.625725205445  12.650852210305  -1.625725291697
1185  0  1  -1.625725209879 -13.046999640213   1.229577784344
1186  0  1  -1.625708982256 -13.046939619238   4.084852805408
1187  0  1  -1.625695456503 -13.046855845980   6.940065582967
1188  0  1  -1.625690680030 -13.046824485983   9.795303616432
1189  0  1  -1.625692397198 -13.046866094158  12.650718625078
1190  0  1  -1.625692392023 -13.046866090185 -13.046866116177
1191  0  1  -1.625690667412 -13.046824484219 -10.191451106492
1192  0  1  -1.625695440224 -13.046855839551  -7.336213076974
1193  0  1  -1.625708970298 -13.046939613113  -4.481000301776
1194  0  1  -1.625725205466 -13.046999638779  -1.625725284195
1195  0  1  -1.625657839203 -10.191457326415   4.084719195346
1196  0  1  -1.625646452250 -10.191161496520   6.939763229751
1197  0  1  -1.625666134138 -10.191210702032   9.795063237878
1198  0  1  -1.625690674590 -10.191451088276  12.650677021358
1199  0  1  -1.625690671148 -10.191451085788 -13.046824508167
1200  0  1  -1.625666122963 -10.191210700583 -10.191210724248
1201  0  1  -1.625646438233 -10.191161495213  -7.335910716309
1202  0  1  -1.625657829225 -10.191457324861  -4.480866683792
1203  0  1  -1.625646451274  -7.335910698733   9.795014048498
1204  0  1  -1.625695448247  -7.336213062430  12.650708384237
1205  0  1  -1.625695442317  -7.336213056152 -13.046855871552
1206  0  1  -1.625646436097  -7.335910692432 -10.191161529818
1207  0  1  -1.625657841861  -4.480866671107   9.795309903691
1208  0  1  -1.625708968120  -4.481000275079  12.650792155711
1209  0  1  -1.625708967350  -4.481000274093 -13.046939661763
1210  0  1  -1.625657825454  -4.480866660378 -10.191457375634
1211  0  1  -1.625725166696  -1.625725205459  12.650852145357
1212  0  1  -1.625725195054  -1.625725246625 -13.046999696270
1213  0  1   2.657183411517   2.657183385607  11.223124294014
1214  0  1   2.657217672166   2.657217628048  14.078486263391
1215  0  1   2.657183293101   2.657183241060 -11.619271711377
1216  0  1   2.657138601950   5.512370892179  11.222961369492
1217  0  1   2.657188800501   5.512472918645  14.078486260016
1218  0  1   2.657138590031   5.512370866668 -11.619108869168
1219  0  1   2.657013075581   8.367100478298   8.367100430566
1220  0  1   2.657130867278   8.367547081029  11.222848473717
1221  0  1   2.657170227077   8.367699102211  14.078486248816
1222  0  1   2.657130870175   8.367547079858 -11.618995981974
1223  0  1   2.657013090276   8.367100476595  -8.763247952782
1224  0  1   2.657183266647  11.223124225252   2.657183191358
1225  0  1   2.657138565199  11.222961392856   5.512370817893
1226  0  1   2.657130856099  11.222848509015   8.367547034921
1227  0  1   2.657150545658  11.222919284516  11.222919251342
1228  0  1   2.657165067521  11.223009626221  14.078486247400
1229  0  1   2.657150553078  11.222919287650 -11.619066756365
1230  0  1   2.657130871016  11.222848510731  -8.763694544668
1231  0  1   2.657138583273  11.222961390878  -5.908518327066
1232  0  1   2.657183279096  11.223124222543  -3.053330702408
1233  0  1   2.657208484502  11.223174619667  -0.198073755429
1234  0  1   2.657217634920  14.078486280475   2.657217556964
1235  0  1   2.657188779097  14.078486277500   5.512472858834
1236  0  1   2.657170215914  14.078486276206   8.367699061018
1237  0  1   2.657165065119  14.078486278106  11.223009595893
1238  0  1   2.657165706250  14.078486282242  14.078486252096
1239  0  1   2.657165072076  14.078486283805 -11.619157093874
1240  0  1   2.657170228253  14.078486284120  -8.763846559971
1241  0  1   2.657188793094  14.078486286136  -5.908620357672
1242  0  1   2.657217643100  14.078486285457  -3.053365056816
1243  0  1   2.657233595135  14.078486283113  -0.198073752395
1244  0  1   2.657183277628 -11.619271666360   2.657183209152
1245  0  1   2.657138573626 -11.619108836281   5.512370830809
1246  0  1   2.657130861112 -11.618995954890   8.367547043096
1247  0  1   2.657150552811 -11.619066731037  11.222919253391
1248  0  1   2.657165077248 -11.619157068967  14.078486250339
1249  0  1   2.657150562639 -11.619066727106 -11.619066751872
1250  0  1   2.657130879967 -11.618995948697  -8.763694540469
1251  0  1   2.657138592771 -11.619108828131  -5.908518322290
1252  0  1   2.657183290988 -11.619271660945  -3.053330691099
1253  0  1   2.657208496759 -11.619322059764  -0.198073739398
1254  0  1   2.657013084907  -8.763247921017   8.367100452863
1255  0  1   2.657130871909  -8.763694525447  11.222848483902
1256  0  1   2.657170232378  -8.763846545144  14.078486252672
1257  0  1   2.657130878174  -8.763694522848 -11.618995979908
1258  0  1   2.657013100649  -8.763247919971  -8.763247945571
1259  0  1   2.656934233866  -8.763262562105  -5.908054176723
1260  0  1   2.657138586572  -5.908518311706  11.222961377635
1261  0  1   2.657188795366  -5.908620343770  14.078486249533
1262  0  1   2.657138588972  -5.908518307963 -11.619108873344
1263  0  1   2.656934232668  -5.908054155815  -8.763262600587
1264  0  1   2.657183295794  -3.053330668187  11.223124216394
1265  0  1   2.657217648238  -3.053365025710  14.078486238451
1266  0  1   2.657183285819  -3.053330675358 -11.619271716323
1267  0  1   2.657208524965  -0.198073660752  11.223174601849
1268  0  1   2.657233614987  -0.198073700858  14.078486242358
1269  0  1   2.657208503814  -0.198073718328 -11.619322112169
1270  0  1   5.512370931903   2.657138562238  11.222961368755
1271  0  1   5.512472970383   2.657188747850  14.078486256319
1272  0  1   5.512370926896   2.657138530496 -11.619108871330
1273  0  1   5.511784376192   5.511784333288   8.366935567998
1274  0  1   5.512316746589   5.512316697897  11.222890697943
1275  0  1   5.512430398946   5.512430344047  14.078486263748
1276  0  1   5.512316753230   5.512316693935 -11.619038214750
1277  0  1   5.511784385670   5.511784323530  -8.763083098638
1278  0  1   5.511784350725   8.366935609900   5.511784269929
1279  0  1   5.512063127217   8.367086238634   8.367086188741
1280  0  1   5.512318963962   8.367524571510  11.222835042390
1281  0  1   5.512404421670   8.367672064222  14.078486249433
1282  0  1   5.512318973822   8.367524574198 -11.618982552914
1283  0  1   5.512063144687   8.367086238024  -8.763233709644
1284  0  1   5.511784375022   8.366935611378  -5.907931793532
1285  0  1   5.512370893042  11.222961387994   2.657138493579
1286  0  1   5.512316719700  11.222890736452   5.512316641252
1287  0  1   5.512318954243  11.222835079846   8.367524522286
1288  0  1   5.512372899612  11.222919000465  11.222918961949
1289  0  1   5.512406223627  11.223004590713  14.078486247052
1290  0  1   5.512372909424  11.222919003459 -11.619066469184
1291  0  1   5.512318967619  11.222835082529  -8.763672032324
1292  0  1   5.512316734126  11.222890738230  -5.908464149085
1293  0  1   5.512370901547  11.222961385767  -3.053285994767
1294  0  1   5.512398654417  11.222987562444  -0.198073747658
1295  0  1   5.512472938969  14.078486275621   2.657188706271
1296  0  1   5.512430360880  14.078486275603   5.512430282892
1297  0  1   5.512404408008  14.078486272800   8.367672020286
1298  0  1   5.512406223972  14.078486272931  11.223004556218
1299  0  1   5.512412194764  14.078486274179  14.078486250656
1300  0  1   5.512406232361  14.078486273728 -11.619152055414
1301  0  1   5.512404421443  14.078486276133  -8.763819518160
1302  0  1   5.512430373241  14.078486276765  -5.908577778381
1303  0  1   5.512472946035  14.078486277986  -3.053336200044
1304  0  1   5.512493190374  14.078486277829  -0.198073746165
1305  0  1   5.512370904186 -11.619108835243   2.657138508868
1306  0  1   5.512316728122 -11.619038185576   5.512316657359
1307  0  1   5.512318959804 -11.618982530215   8.367524535621
1308  0  1   5.512372906281 -11.619066450647  11.222918970215
1309  0  1   5.512406231441 -11.619152039685  14.078486249925
1310  0  1   5.512372915224 -11.619066450984 -11.619066467525
1311  0  1   5.512318973634 -11.618982528590  -8.763672029079
1312  0  1   5.512316742605 -11.619038185550  -5.908464142072
1313  0  1   5.512370914424 -11.619108833987  -3.053285986602
1314  0  1   5.512398668571 -11.619135009958  -0.198073736281
1315  0  1   5.511784373330  -8.763083060276   5.511784302967
1316  0  1   5.512063139920  -8.763233683865   8.367086214084
1317  0  1   5.512318971094  -8.763672017326  11.222835057855
1318  0  1   5.512404424799  -8.763819507170  14.078486252687
1319  0  1   5.512318976745  -8.763672016127 -11.618982551520
1320  0  1   5.512063151278  -8.763233684734  -8.763233703489
1321  0  1   5.511784387919  -8.763083061143  -5.907931785403
1322  0  1   5.511906771530  -8.763262561333  -3.053081626624
1323  0  1   5.511784380202  -5.907931769888   8.366935601250
1324  0  1   5.512316742581  -5.908464135359  11.222890719256
1325  0  1   5.512430376363  -5.908577767099  14.078486251013
1326  0  1   5.512316743107  -5.908464132263 -11.619038216874
1327  0  1   5.511784384859  -5.907931771368  -8.763083093996
1328  0  1   5.512370915139  -3.053285975600  11.222961371832
1329  0  1   5.512472950026  -3.053336181384  14.078486245524
1330  0  1   5.512370915339  -3.053285976707 -11.619108874779
1331  0  1   5.511906767494  -3.053081619341  -8.763262605117
1332  0  1   5.512398679373  -0.198073705858  11.222987541101
1333  0  1   5.512493208317  -0.198073721308  14.078486248738
1334  0  1   5.512398677620  -0.198073726447 -11.619135053064
1335  0  1   8.367100524148   2.657013034799   8.367100438523
1336  0  1   8.367547130679   2.657130816047  11.222848477569
1337  0  1   8.367699155889   2.657170166029  14.078486245799
1338  0  1   8.367547137266   2.657130807106 -11.618995986248
1339  0  1   8.367100534803   2.657013027898  -8.763247957742
1340  0  1   8.366935649782   5.511784313640   5.511784275865
1341  0  1   8.367086278640   5.512063089742   8.367086193315
1342  0  1   8.367524614975   5.512318919366  11.222835044459
1343  0  1   8.367672112072   5.512404370530  14.078486249745
1344  0  1   8.367524625596   5.512318920904 -11.618982555980
1345  0  1   8.367086293710   5.512063089633  -8.763233714372
1346  0  1   8.366935667845   5.511784318986  -5.907931797688
1347  0  1   8.367100505531   8.367100454705   2.657012996600
1348  0  1   8.367086268386   8.367086222461   5.512063041939
1349  0  1   8.367110040891   8.367109994497   8.367109959453
1350  0  1   8.367522179304   8.367522136732  11.222832696088
1351  0  1   8.367653516325   8.367653473887  14.078486247455
1352  0  1   8.367522192168   8.367522144930 -11.618980201790
1353  0  1   8.367110057721   8.367110009772  -8.763257474892
1354  0  1   8.367086285082   8.367086232376  -5.908210556012
1355  0  1   8.367100512657   8.367100461445  -3.053160499500
1356  0  1   8.367109848833   8.367109798705  -0.198073748054
1357  0  1   8.367547111712  11.222848497053   2.657130781350
1358  0  1   8.367524601605  11.222835070239   5.512318878014
1359  0  1   8.367522172864  11.222832721019   8.367522097352
1360  0  1   8.367619382432  11.222928775481  11.222928747207
1361  0  1   8.367672380150  11.223004052952  14.078486246595
1362  0  1   8.367619394635  11.222928782484 -11.619076250421
1363  0  1   8.367522189100  11.222832735026  -8.763669602377
1364  0  1   8.367524616068  11.222835079686  -5.908466378774
1365  0  1   8.367547119627  11.222848502218  -3.053278275465
1366  0  1   8.367557784969  11.222854098420  -0.198073746856
1367  0  1   8.367699141849  14.078486268389   2.657170143540
1368  0  1   8.367672099199  14.078486267466   5.512404335259
1369  0  1   8.367653510084  14.078486264461   8.367653437166
1370  0  1   8.367672377646  14.078486266985  11.223004022246
1371  0  1   8.367672384750  14.078486277820 -11.619151519432
1372  0  1   8.367653520542  14.078486282270  -8.763800929226
1373  0  1   8.367672107888  14.078486280757  -5.908551823775
1374  0  1   8.367699145595  14.078486277481  -3.053317627132
1375  0  1   8.367710862566  14.078486273261  -0.198073740508
1376  0  1   8.367547121134 -11.618995959837   2.657130797027
1377  0  1   8.367524608038 -11.618982535148   5.512318894097
1378  0  1   8.367522176879 -11.618980189726   8.367522109741
1379  0  1   8.367619386664 -11.619076239255  11.222928753411
1380  0  1   8.367672380809 -11.619151507169  14.078486252780
1381  0  1   8.367619391340 -11.619076229856 -11.619076245670
1382  0  1   8.367522188514 -11.618980174033  -8.763669597424
1383  0  1   8.367524618104 -11.618982523746  -5.908466372770
1384  0  1   8.367547128836 -11.618995952828  -3.053278268278
1385  0  1   8.367557796390 -11.619001555265  -0.198073733846
1386  0  1   8.367100528795  -8.763247922720   2.657013020329
1387  0  1   8.367086286965  -8.763233687303   5.512063069976
1388  0  1   8.367110052853  -8.763257460113   8.367109982419
1389  0  1   8.367522187452  -8.763669594018  11.222832707636
1390  0  1   8.367653518945  -8.763800924260  14.078486253711
1391  0  1   8.367522188085  -8.763669591111 -11.618980198996
1392  0  1   8.367110057448  -8.763257454466  -8.763257469671
1393  0  1   8.367086290314  -8.763233683324  -5.908210546341
1394  0  1   8.367100531519  -8.763247918577  -3.053160487643
1395  0  1   8.367109874647  -8.763257262243  -0.198073729682
1396  0  1   8.366935670836  -5.907931773464   5.511784306715
1397  0  1   8.367086289950  -5.908210545832   8.367086215037
1398  0  1   8.367524621206  -5.908466375665  11.222835057362
1399  0  1   8.367672109392  -5.908551821285  14.078486249582
1400  0  1   8.367524620900  -5.908466371395 -11.618982554343
1401  0  1   8.367086294099  -5.908210539317  -8.763233707443
1402  0  1   8.366935675968  -5.907931772228  -5.907931787263
1403  0  1   8.367100531172  -3.053160483912   8.367100453466
1404  0  1   8.367547132622  -3.053278266621  11.222848482419
1405  0  1   8.367699151754  -3.053317623711  14.078486244660
1406  0  1   8.367547135055  -3.053278267445 -11.618995986384
1407  0  1   8.367100535292  -3.053160485885  -8.763247953906
1408  0  1   8.367109871322  -0.198073725407   8.367109794095
1409  0  1   8.367557800563  -0.198073725623  11.222854077986
1410  0  1   8.367710872562  -0.198073730358  14.078486244636
1411  0  1   8.367557807456  -0.198073733688 -11.619001588417
1412  0  1   8.367109879171  -0.198073730609  -8.763257301448
1413  0  1  11.223124275318   2.657183229722   2.657183202526
1414  0  1  11.222961439408   2.657138531115   5.512370829620
1415  0  1  11.222848554081   2.657130814445   8.367547045892
1416  0  1  11.222919329638   2.657150495771  11.222919255307
1417  0  1  11.223009671259   2.657165011374  14.078486245042
1418  0  1  11.222919334873   2.657150494617 -11.619066764649
1419  0  1  11.222848559219   2.657130812570  -8.763694556041
1420  0  1  11.222961442787   2.657138527097  -5.908518337546
1421  0  1  11.223124275858   2.657183228691  -3.053330706378
1422  0  1  11.223174672490   2.657208441978  -0.198073751588
1423  0  1  11.222961433835   5.512370854367   2.657138494680
1424  0  1  11.222890781437   5.512316682418   5.512316649327
1425  0  1  11.222835121214   5.512318916937   8.367524532913
1426  0  1  11.222919040415   5.512372861528  11.222918969955
1427  0  1  11.223004630326   5.512406181905  14.078486247031
1428  0  1  11.222919046448   5.512372866006 -11.619066477707
1429  0  1  11.222835128289   5.512318923900  -8.763672043465
1430  0  1  11.222890784843   5.512316688767  -5.908464160835
1431  0  1  11.222961433745   5.512370857724  -3.053286003575
1432  0  1  11.222987610405   5.512398613427  -0.198073753274
1433  0  1  11.222848546922   8.367547066570   2.657130780729
1434  0  1  11.222835119197   8.367524557315   5.512318879928
1435  0  1  11.222832768859   8.367522132088   8.367522102404
1436  0  1  11.222928819369   8.367619344613  11.222928749947
1437  0  1  11.223004096215   8.367672341963  14.078486246808
1438  0  1  11.222928829526   8.367619352406 -11.619076257197
1439  0  1  11.222832781603   8.367522146298  -8.763669608054
1440  0  1  11.222835128440   8.367524571039  -5.908466386242
1441  0  1  11.222848550118   8.367547074701  -3.053278282521
1442  0  1  11.222854146419   8.367557741398  -0.198073750983
1443  0  1  11.222919326289  11.222919272474   2.657150471768
1444  0  1  11.222919039613  11.222918985316   5.512372828824
1445  0  1  11.222928819398  11.222928768005   8.367619311895
1446  0  1  11.222965540337  11.222965496939  11.222965470485
1447  0  1  11.222965544677  11.222965509984 -11.619112972266
1448  0  1  11.222928825598  11.222928790796  -8.763766809825
1449  0  1  11.222919045225  11.222919007853  -5.908520321230
1450  0  1  11.222919326980  11.222919285721  -3.053297959032
1451  0  1  11.222920154736  11.222920105619  -0.198073744103
1452  0  1  11.223009668520  14.078486269575   2.657164996504
1453  0  1  11.223004630569  14.078486264770   5.512406155609
1454  0  1  11.223004091499  14.078486265353   8.367672311339
1455  0  1  11.223004093627  14.078486287812  -8.763819797273
1456  0  1  11.223004631949  14.078486285913  -5.908553635486
1457  0  1  11.223009668906  14.078486283021  -3.053312471523
1458  0  1  11.223012091047  14.078486275555  -0.198073735577
1459  0  1  11.222919333546 -11.619066737389   2.657150484755
1460  0  1  11.222919045181 -11.619066458267   5.512372843833
1461  0  1  11.222928823797 -11.619076240828   8.367619324817
1462  0  1  11.222965543112 -11.619112959197  11.222965482704
1463  0  1  11.222965549976 -11.619112944873 -11.619112965316
1464  0  1  11.222928833228 -11.619076220444  -8.763766802506
1465  0  1  11.222919053857 -11.619066437799  -5.908520315253
1466  0  1  11.222919337041 -11.619066725270  -3.053297951538
1467  0  1  11.222920163484 -11.619067558469  -0.198073733973
1468  0  1  11.222848559171  -8.763694532164   2.657130802765
1469  0  1  11.222835130572  -8.763672029401   5.512318902743
1470  0  1  11.222832777638  -8.763669601818   8.367522121889
1471  0  1  11.222928825830  -8.763766808341  11.222928762480
1472  0  1  11.223004098530  -8.763819795156  14.078486258869
1473  0  1  11.222928828682  -8.763766796126 -11.619076245877
1474  0  1  11.222832782862  -8.763669583960  -8.763669597718
1475  0  1  11.222835132581  -8.763672010223  -5.908466373514
1476  0  1  11.222848560858  -8.763694521007  -3.053278269006
1477  0  1  11.222854160805  -8.763705195946  -0.198073731016
1478  0  1  11.222961447593  -5.908518308038   2.657138518098
1479  0  1  11.222890792950  -5.908464139448   5.512316670094
1480  0  1  11.222835131408  -5.908466375692   8.367524547441
1481  0  1  11.222919050918  -5.908520318139  11.222918979394
1482  0  1  11.223004637881  -5.908553636091  14.078486253265
1483  0  1  11.222919049083  -5.908520314605 -11.619066469946
1484  0  1  11.222835131374  -5.908466369028  -8.763672032921
1485  0  1  11.222890790949  -5.908464132797  -5.908464147650
1486  0  1  11.222961445781  -5.908518303889  -3.053285986809
1487  0  1  11.222987626028  -5.908546062905  -0.198073732511
1488  0  1  11.223124283555  -3.053330677279   2.657183217331
1489  0  1  11.222961446707  -3.053285977591   5.512370841035
1490  0  1  11.222848560266  -3.053278266749   8.367547052987
1491  0  1  11.222919337277  -3.053297954114  11.222919257972
1492  0  1  11.223009678374  -3.053312471715  14.078486248240
1493  0  1  11.222919340304  -3.053297952981 -11.619066759670
1494  0  1  11.222848565860  -3.053278265410  -8.763694549258
1495  0  1  11.222961449914  -3.053285977431  -5.908518331334
1496  0  1  11.223124284549  -3.053330678272  -3.053330696409
1497  0  1  11.223174682031  -3.053355890625  -0.198073737793
1498  0  1  11.223174677844  -0.198073721148   2.657208424652
1499  0  1  11.222987622224  -0.198073721797   5.512398595577
1500  0  1  11.222854158154  -0.198073724252   8.367557720976
1501  0  1  11.222920162807  -0.198073728872  11.222920082507
1502  0  1  11.223012099272  -0.198073731417  14.078486245289
1503  0  1  11.222920167704  -0.198073731009 -11.619067592338
1504  0  1  11.222854165196  -0.198073727064  -8.763705225575
1505  0  1  11.222987625854  -0.198073726178  -5.908546094629
1506  0  1  11.223174679209  -0.198073726083  -3.053355918511
1507  0  1  11.223258829617  -0.198073724388  -0.198073746428
1508  0  1  14.078486323478   2.657217593192   2.657217563708
1509  0  1  14.078486321713   2.657188735139   5.512472871370
1510  0  1  14.078486319030   2.657170167919   8.367699074472
1511  0  1  14.078486316471   2.657165016760  11.223009597745
1512  0  1  14.078486315987   2.657165656865  14.078486247680
1513  0  1  14.078486317074   2.657165021388 -11.619157106183
1514  0  1  14.078486318302   2.657170176832  -8.763846579467
1515  0  1  14.078486319002   2.657188745682  -5.908620376634
1516  0  1  14.078486320110   2.657217600376  -3.053365070016
1517  0  1  14.078486321807   2.657233554464  -0.198073752167
1518  0  1  14.078486322237   5.512472894901   2.657188706275
1519  0  1  14.078486321471   5.512430315572   5.512430291589
1520  0  1  14.078486319150   5.512404364130   8.367672030508
1521  0  1  14.078486317372   5.512406182711  11.223004563770
1522  0  1  14.078486317494   5.512412152263  14.078486247728
1523  0  1  14.078486318096   5.512406187507 -11.619152067042
1524  0  1  14.078486320092   5.512404375449  -8.763819536894
1525  0  1  14.078486319790   5.512430328088  -5.908577799323
1526  0  1  14.078486321032   5.512472904757  -3.053336216199
1527  0  1  14.078486321839   5.512493149003  -0.198073756620
1528  0  1  14.078486322300   8.367699094003   2.657170140197
1529  0  1  14.078486322457   8.367672051121   5.512404337832
1530  0  1  14.078486318906   8.367653465348   8.367653442359
1531  0  1  14.078486315191   8.367672338677  11.223004030418
1532  0  1  14.078486318837   8.367672351993 -11.619151524818
1533  0  1  14.078486319547   8.367653486800  -8.763800943875
1534  0  1  14.078486321729   8.367672073176  -5.908551843990
1535  0  1  14.078486321221   8.367699107930  -3.053317649304
1536  0  1  14.078486321084   8.367710819719  -0.198073754334
1537  0  1  14.078486319678  11.223009620435   2.657164989119
1538  0  1  14.078486318769  11.223004581934   5.512406155424
1539  0  1  14.078486315114  11.223004046119   8.367672314946
1540  0  1  14.078486314146  11.223004073310  -8.763819806142
1541  0  1  14.078486316195  11.223004607612  -5.908553648790
1542  0  1  14.078486317969  11.223009636009  -3.053312483558
1543  0  1  14.078486317547  11.223012048654  -0.198073747468
1544  0  1  14.078486322707  14.078486272031   2.657165636240
1545  0  1  14.078486320842  14.078486264960   5.512412128655
1546  0  1  14.078486321852  14.078486285558  -3.053313110108
1547  0  1  14.078486322324  14.078486278206  -0.198073736989
1548  0  1  14.078486325589 -11.619157080117   2.657165006065
1549  0  1  14.078486323346 -11.619152050313   5.512406169414
1550  0  1  14.078486320181 -11.619151514638   8.367672324294
1551  0  1  14.078486326909 -11.619151488394  -8.763819796191
1552  0  1  14.078486328701 -11.619152024129  -5.908553635062
1553  0  1  14.078486326680 -11.619157067007  -3.053312469690
1554  0  1  14.078486325865 -11.619159494759  -0.198073732184
1555  0  1  14.078486326688  -8.763846552928   2.657170163213
1556  0  1  14.078486323835  -8.763819517850   5.512404357562
1557  0  1  14.078486322922  -8.763800932824   8.367653456768
1558  0  1  14.078486321650  -8.763819800931  11.223004038129
1559  0  1  14.078486326217  -8.763819785093 -11.619151519717
1560  0  1  14.078486329788  -8.763800911526  -8.763800930350
1561  0  1  14.078486329797  -8.763819497523  -5.908551820360
1562  0  1  14.078486329069  -8.763846540013  -3.053317621610
1563  0  1  14.078486328036  -8.763858266431  -0.198073728945
1564  0  1  14.078486323517  -5.908620351434   2.657188726814
1565  0  1  14.078486321092  -5.908577780086   5.512430307854
1566  0  1  14.078486319847  -5.908551830785   8.367672042463
1567  0  1  14.078486320193  -5.908553642883  11.223004570711
1568  0  1  14.078486321503  -5.908553632755 -11.619152060913
1569  0  1  14.078486323521  -5.908551817956  -8.763819523827
1570  0  1  14.078486324708  -5.908577765528  -5.908577779056
1571  0  1  14.078486325898  -5.908620341804  -3.053336193232
1572  0  1  14.078486325107  -5.908640593661  -0.198073731964
1573  0  1  14.078486323364  -3.053365041822   2.657217576754
1574  0  1  14.078486322901  -3.053336193392   5.512472880516
1575  0  1  14.078486320777  -3.053317628824   8.367699078769
1576  0  1  14.078486320240  -3.053312472358  11.223009602905
1577  0  1  14.078486321899  -3.053313107549  14.078486253706
1578  0  1  14.078486322174  -3.053312470394 -11.619157097885
1579  0  1  14.078486324397  -3.053317623785  -8.763846570273
1580  0  1  14.078486325317  -3.053336187360  -5.908620368471
1581  0  1  14.078486326560  -3.053365037277  -3.053365060623
1582  0  1  14.078486325338  -3.053380995525  -0.198073740427
1583  0  1  14.078486324326  -0.198073723381   2.657233528027
1584  0  1  14.078486321951  -0.198073727598   5.512493123499
1585  0  1  14.078486319601  -0.198073728370   8.367710795416
1586  0  1  14.078486320208  -0.198073727974  11.223012024071
1587  0  1  14.078486322623  -0.198073725536  14.078486248800
1588  0  1  14.078486323519  -0.198073723680 -11.619159523768
1589  0  1  14.078486326381  -0.198073722275  -8.763858296911
1590  0  1  14.078486326563  -0.198073719408  -5.908640623271
1591  0  1  14.078486328050  -0.198073718753  -3.053381026352
1592  0  1  14.078486326811  -0.198073720316  -0.198073749739
1593  0  1 -11.619271637730   2.657183237252   2.657183205666
1594  0  1 -11.619108803042   2.657138530509   5.512370840986
1595  0  1 -11.618995920186   2.657130815377   8.367547060556
1596  0  1 -11.619066694849   2.657150501817  11.222919264351
1597  0  1 -11.619157032863   2.657165022355  14.078486250149
1598  0  1 -11.619066692142   2.657150506971 -11.619066766378
1599  0  1 -11.618995915048   2.657130823789  -8.763694562836
1600  0  1 -11.619108800023   2.657138540809  -5.908518347929
1601  0  1 -11.619271635334   2.657183243157  -3.053330717465
1602  0  1 -11.619322033049   2.657208453583  -0.198073755062
1603  0  1 -11.619108802968   5.512370865515   2.657138500205
1604  0  1 -11.619038151932   5.512316688149   5.512316663100
1605  0  1 -11.618982492932   5.512318921596   8.367524549067
1606  0  1 -11.619066411556   5.512372869719  11.222918982422
1607  0  1 -11.619151998437   5.512406192057  14.078486250850
1608  0  1 -11.619066408820   5.512372872994 -11.619066479210
1609  0  1 -11.618982490057   5.512318929719  -8.763672051271
1610  0  1 -11.619038150460   5.512316699313  -5.908464172396
1611  0  1 -11.619108803192   5.512370874531  -3.053286015116
1612  0  1 -11.619134980328   5.512398631162  -0.198073759616
1613  0  1 -11.618995917308   8.367547080324   2.657130785632
1614  0  1 -11.618982491418   8.367524568913   5.512318893907
1615  0  1 -11.618980141818   8.367522140709   8.367522117975
1616  0  1 -11.619076191483   8.367619351674  11.222928763167
1617  0  1 -11.619151461827   8.367672352140  14.078486258074
1618  0  1 -11.619076189414   8.367619364328 -11.619076251768
1619  0  1 -11.618980138497   8.367522159800  -8.763669615977
1620  0  1 -11.618982489298   8.367524588970  -5.908466400979
1621  0  1 -11.618995916021   8.367547093870  -3.053278299023
1622  0  1 -11.619001514755   8.367557757611  -0.198073756890
1623  0  1 -11.619066687384  11.222919287079   2.657150472111
1624  0  1 -11.619066404452  11.222918999712   5.512372840529
1625  0  1 -11.619076185096  11.222928779709   8.367619328896
1626  0  1 -11.619112904751  11.222965504840  11.222965485258
1627  0  1 -11.619112900050  11.222965523705 -11.619112967882
1628  0  1 -11.619076178768  11.222928805468  -8.763766815848
1629  0  1 -11.619066398891  11.222919024630  -5.908520335213
1630  0  1 -11.619066685483  11.222919302419  -3.053297971030
1631  0  1 -11.619067513852  11.222920120923  -0.198073749906
1632  0  1 -11.619157025006  14.078486275120   2.657164999545
1633  0  1 -11.619151988672  14.078486268025   5.512406166997
1634  0  1 -11.619151453275  14.078486269958   8.367672324883
1635  0  1 -11.619151447892  14.078486297943  -8.763819801524
1636  0  1 -11.619151984784  14.078486295708  -5.908553642798
1637  0  1 -11.619157022370  14.078486288064  -3.053312476820
1638  0  1 -11.619159445510  14.078486281578  -0.198073738739
1639  0  1 -11.619066684214 -11.619066738977   2.657150489770
1640  0  1 -11.619066399354 -11.619066460803   5.512372852858
1641  0  1 -11.619076180248 -11.619076240518   8.367619336535
1642  0  1 -11.619112900183 -11.619112957759  11.222965491474
1643  0  1 -11.619112901199 -11.619112940780 -11.619112962569
1644  0  1 -11.619076180411 -11.619076214037  -8.763766806277
1645  0  1 -11.619066400221 -11.619066433597  -5.908520320168
1646  0  1 -11.619066683344 -11.619066725423  -3.053297956177
1647  0  1 -11.619067510636 -11.619067560535  -0.198073734129
1648  0  1 -11.618995910737  -8.763694534368   2.657130808722
1649  0  1 -11.618982481858  -8.763672030668   5.512318910815
1650  0  1 -11.618980131899  -8.763669603442   8.367522131081
1651  0  1 -11.619076182105  -8.763766807607  11.222928771007
1652  0  1 -11.619151454487  -8.763819792947  14.078486262100
1653  0  1 -11.619076181405  -8.763766793143 -11.619076247790
1654  0  1 -11.618980132728  -8.763669580098  -8.763669602162
1655  0  1 -11.618982482528  -8.763672008516  -5.908466375870
1656  0  1 -11.618995909925  -8.763694521466  -3.053278271010
1657  0  1 -11.619001508601  -8.763705198979  -0.198073730510
1658  0  1 -11.619108794243  -5.908518318121   2.657138520106
1659  0  1 -11.619038141861  -5.908464148965   5.512316677669
1660  0  1 -11.618982482826  -5.908466384201   8.367524559794
1661  0  1 -11.619066403411  -5.908520324686  11.222918987471
1662  0  1 -11.619151990709  -5.908553637531  14.078486255829
1663  0  1 -11.619066399406  -5.908520313349 -11.619066471646
1664  0  1 -11.618982480145  -5.908466369011  -8.763672037420
1665  0  1 -11.619038139761  -5.908464133439  -5.908464151515
1666  0  1 -11.619108793680  -5.908518307842  -3.053285990463
1667  0  1 -11.619134971978  -5.908546071593  -0.198073733491
1668  0  1 -11.619271634574  -3.053330685143   2.657183217182
1669  0  1 -11.619108800352  -3.053285987905   5.512370849351
1670  0  1 -11.618995916022  -3.053278274566   8.367547065424
1671  0  1 -11.619066691925  -3.053297955994  11.222919269243
1672  0  1 -11.619157031375  -3.053312470347  14.078486255641
1673  0  1 -11.619066690039  -3.053297952649 -11.619066757689
1674  0  1 -11.618995913380  -3.053278269054  -8.763694554670
1675  0  1 -11.619108797882  -3.053285981389  -5.908518339018
1676  0  1 -11.619271634497  -3.053330679648  -3.053330707028
1677  0  1 -11.619322030828  -3.053355894144  -0.198073742712
1678  0  1 -11.619322033745  -0.198073722437   2.657208425797
1679  0  1 -11.619134979942  -0.198073726687   5.512398604390
1680  0  1 -11.619001518617  -0.198073727369   8.367557733541
1681  0  1 -11.619067524981  -0.198073726562  11.222920096060
1682  0  1 -11.619159458685  -0.198073724017  14.078486251732
1683  0  1 -11.619067523738  -0.198073722069 -11.619067590641
1684  0  1 -11.619001517982  -0.198073720736  -8.763705231410
1685  0  1 -11.619134980992  -0.198073717480  -5.908546105245
1686  0  1 -11.619322036282  -0.198073717612  -3.053355928280
1687  0  1 -11.619406187001  -0.198073719652  -0.198073752728
1688  0  1  -8.763247895905   2.657013044181   8.367100467759
1689  0  1  -8.763694491869   2.657130820631  11.222848496949
1690  0  1  -8.763846508803   2.657170173462  14.078486253356
1691  0  1  -8.763694485873   2.657130818576 -11.618995991846
1692  0  1  -8.763247887056   2.657013041704  -8.763247968766
1693  0  1  -8.763262537519   2.656934177351  -5.908054205909
1694  0  1  -8.763083034085   5.511784337377   5.511784305114
1695  0  1  -8.763233651710   5.512063103450   8.367086224851
1696  0  1  -8.763671977213   5.512318931268  11.222835069480
1697  0  1  -8.763819463775   5.512404380695  14.078486256443
1698  0  1  -8.763671973013   5.512318931741 -11.618982562059
1699  0  1  -8.763233644250   5.512063105792  -8.763233726067
1700  0  1  -8.763083029205   5.511784341639  -5.907931817478
1701  0  1  -8.763262535367   5.511906724978  -3.053081662049
1702  0  1  -8.763247884944   8.367100487409   2.657013004628
1703  0  1  -8.763233645953   8.367086247019   5.512063066137
1704  0  1  -8.763257412396   8.367110016484   8.367109987539
1705  0  1  -8.763669542453   8.367522153310  11.222832717556
1706  0  1  -8.763800874312   8.367653488456  14.078486255690
1707  0  1  -8.763669544089   8.367522158475 -11.618980205772
1708  0  1  -8.763257413044   8.367110026252  -8.763257488431
1709  0  1  -8.763233646668   8.367086257487  -5.908210573220
1710  0  1  -8.763247884775   8.367100494377  -3.053160519553
1711  0  1  -8.763257228326   8.367109834290  -0.198073757730
1712  0  1  -8.763694479119  11.222848511688   2.657130790170
1713  0  1  -8.763671969368  11.222835081153   5.512318896789
1714  0  1  -8.763669539957  11.222832732348   8.367522120300
1715  0  1  -8.763766744813  11.222928787698  11.222928763402
1716  0  1  -8.763819734923  11.223004066264  14.078486256493
1717  0  1  -8.763766741682  11.222928800308 -11.619076250141
1718  0  1  -8.763669534572  11.222832753720  -8.763669610264
1719  0  1  -8.763671965709  11.222835102405  -5.908466392684
1720  0  1  -8.763694476928  11.222848524952  -3.053278287957
1721  0  1  -8.763705150870  11.222854117996  -0.198073749034
1722  0  1  -8.763846494164  14.078486279195   2.657170151905
1723  0  1  -8.763819454494  14.078486274070   5.512404351992
1724  0  1  -8.763800863516  14.078486275032   8.367653456278
1725  0  1  -8.763819728521  14.078486278833  11.223004038902
1726  0  1  -8.763819723145  14.078486291728 -11.619151517941
1727  0  1  -8.763800856665  14.078486296716  -8.763800936299
1728  0  1  -8.763819446400  14.078486295468  -5.908551833255
1729  0  1  -8.763846489884  14.078486291433  -3.053317636841
1730  0  1  -8.763858213383  14.078486285571  -0.198073740613
1731  0  1  -8.763694474502 -11.618995960065   2.657130802335
1732  0  1  -8.763671963798 -11.618982537381   5.512318907156
1733  0  1  -8.763669533209 -11.618980187414   8.367522131417
1734  0  1  -8.763766736615 -11.619076233716  11.222928775010
1735  0  1  -8.763819727850 -11.619151500682  14.078486265339
1736  0  1  -8.763766735651 -11.619076221236 -11.619076243966
1737  0  1  -8.763669531484 -11.618980167929  -8.763669602304
1738  0  1  -8.763671962649 -11.618982516181  -5.908466383420
1739  0  1  -8.763694474090 -11.618995947697  -3.053278277104
1740  0  1  -8.763705147154 -11.619001552103  -0.198073738958
1741  0  1  -8.763247879850  -8.763247935887   2.657013025839
1742  0  1  -8.763233639691  -8.763233702866   5.512063083533
1743  0  1  -8.763257406139  -8.763257473026   8.367110002475
1744  0  1  -8.763669532682  -8.763669600087  11.222832729431
1745  0  1  -8.763800860697  -8.763800924920  14.078486267544
1746  0  1  -8.763669528382  -8.763669588088 -11.618980195910
1747  0  1  -8.763257397029  -8.763257451796  -8.763257474493
1748  0  1  -8.763233632320  -8.763233682931  -5.908210557463
1749  0  1  -8.763247876317  -8.763247924198  -3.053160500872
1750  0  1  -8.763257223804  -8.763257272809  -0.198073737473
1751  0  1  -8.763262535552  -5.908054165978   2.656934162041
1752  0  1  -8.763083031946  -5.907931785735   5.511784321435
1753  0  1  -8.763233647876  -5.908210553452   8.367086235061
1754  0  1  -8.763671972905  -5.908466379292  11.222835075797
1755  0  1  -8.763819455860  -5.908551823640  14.078486262784
1756  0  1  -8.763671960640  -5.908466371686 -11.618982551893
1757  0  1  -8.763233632690  -5.908210542180  -8.763233714162
1758  0  1  -8.763083018097  -5.907931776587  -5.907931800383
1759  0  1  -8.763262529054  -5.908054160695  -3.053081640343
1760  0  1  -8.763262543958  -3.053081623955   5.511906707337
1761  0  1  -8.763247895804  -3.053160491738   8.367100472443
1762  0  1  -8.763694491541  -3.053278271245  11.222848499073
1763  0  1  -8.763846506886  -3.053317624672  14.078486255514
1764  0  1  -8.763694483264  -3.053278266728 -11.618995985976
1765  0  1  -8.763247885343  -3.053160486077  -8.763247961351
1766  0  1  -8.763262536431  -3.053081621523  -5.908054196188
1767  0  1  -8.763257242112  -0.198073722566   8.367109813715
1768  0  1  -8.763705167338  -0.198073725282  11.222854096707
1769  0  1  -8.763858232205  -0.198073728054  14.078486254855
1770  0  1  -8.763705159407  -0.198073727023 -11.619001589335
1771  0  1  -8.763257234123  -0.198073725845  -8.763257311023
1772  0  1  -5.908518284415   2.657138539168  11.222961387736
1773  0  1  -5.908620308582   2.657188739973  14.078486252761
1774  0  1  -5.908518268759   2.657138529014 -11.619108880053
1775  0  1  -5.908054124416   2.656934172220  -8.763262619901
1776  0  1  -5.907931747549   5.511784346546   8.366935610678
1777  0  1  -5.908464102593   5.512316703861  11.222890729945
1778  0  1  -5.908577727880   5.512430333314  14.078486257279
1779  0  1  -5.908464091554   5.512316697801 -11.619038224719
1780  0  1  -5.907931735074   5.511784338656  -8.763083111261
1781  0  1  -5.907931736094   8.366935628794   5.511784299415
1782  0  1  -5.908210497153   8.367086248321   8.367086218973
1783  0  1  -5.908466321186   8.367524582823  11.222835068730
1784  0  1  -5.908551766089   8.367672074426  14.078486257554
1785  0  1  -5.908466316430   8.367524583519 -11.618982556103
1786  0  1  -5.908210490211   8.367086255197  -8.763233721434
1787  0  1  -5.907931730408   8.366935634418  -5.907931813500
1788  0  1  -5.908518262528  11.222961400252   2.657138499106
1789  0  1  -5.908464086824  11.222890748187   5.512316660236
1790  0  1  -5.908466314688  11.222835088637   8.367524546273
1791  0  1  -5.908520251822  11.222919010601  11.222918983591
1792  0  1  -5.908553569063  11.223004602099  14.078486257536
1793  0  1  -5.908520251196  11.222919015423 -11.619066470547
1794  0  1  -5.908466309841  11.222835097635  -8.763672040484
1795  0  1  -5.908464082561  11.222890754899  -5.908464164274
1796  0  1  -5.908518259135  11.222961405048  -3.053286007135
1797  0  1  -5.908546018831  11.222987580451  -0.198073757089
1798  0  1  -5.908620295678  14.078486278280   2.657188711259
1799  0  1  -5.908577718230  14.078486276911   5.512430298965
1800  0  1  -5.908551760762  14.078486274430   8.367672039854
1801  0  1  -5.908553567348  14.078486275725  11.223004573511
1802  0  1  -5.908553562050  14.078486285965 -11.619152054142
1803  0  1  -5.908551751164  14.078486291446  -8.763819525141
1804  0  1  -5.908577708288  14.078486290495  -5.908577789030
1805  0  1  -5.908620289719  14.078486286653  -3.053336207810
1806  0  1  -5.908640539417  14.078486282274  -0.198073748214
1807  0  1  -5.908518255120 -11.619108841475   2.657138512520
1808  0  1  -5.908464077634 -11.619038192157   5.512316670621
1809  0  1  -5.908466306137 -11.618982536176   8.367524554189
1810  0  1  -5.908520244963 -11.619066454095  11.222918988639
1811  0  1  -5.908553558513 -11.619152038265  14.078486263354
1812  0  1  -5.908520237561 -11.619066444779 -11.619066465178
1813  0  1  -5.908466297538 -11.618982519134  -8.763672033677
1814  0  1  -5.908464070888 -11.619038178977  -5.908464153624
1815  0  1  -5.908518251975 -11.619108833623  -3.053285995319
1816  0  1  -5.908546013816 -11.619135015099  -0.198073741883
1817  0  1  -5.908054118195  -8.763262573585   2.656934157584
1818  0  1  -5.907931729936  -8.763083073444   5.511784318488
1819  0  1  -5.908210489951  -8.763233697044   8.367086232264
1820  0  1  -5.908466311330  -8.763672024870  11.222835074051
1821  0  1  -5.908551750290  -8.763819511241  14.078486263518
1822  0  1  -5.908466296519  -8.763672017816 -11.618982549413
1823  0  1  -5.908210472033  -8.763233684784  -8.763233710121
1824  0  1  -5.907931714311  -8.763083066577  -5.907931795608
1825  0  1  -5.908054110674  -8.763262568409  -3.053081637493
1826  0  1  -5.907931738777  -5.907931790264   8.366935623535
1827  0  1  -5.908464090745  -5.908464147192  11.222890737000
1828  0  1  -5.908577711828  -5.908577772645  14.078486260456
1829  0  1  -5.908464071605  -5.908464135532 -11.619038219382
1830  0  1  -5.907931717088  -5.907931774298  -8.763083099588
1831  0  1  -5.908518276325  -3.053285984070  11.222961391806
1832  0  1  -5.908620295672  -3.053336186368  14.078486251086
1833  0  1  -5.908518256974  -3.053285978949 -11.619108877235
1834  0  1  -5.908054114662  -3.053081621172  -8.763262612774
1835  0  1  -5.908546038594  -0.198073720648  11.222987564933
1836  0  1  -5.908640550088  -0.198073724748  14.078486251238
1837  0  1  -5.908546023678  -0.198073727583 -11.619135059907
1838  0  1  -3.053330648521   2.657183261494  11.223124227113
1839  0  1  -3.053364991225   2.657217602260  14.078486245333
1840  0  1  -3.053330637213   2.657183235539 -11.619271717664
1841  0  1  -3.053285947497   5.512370882534  11.222961380904
1842  0  1  -3.053336145070   5.512472912689  14.078486254085
1843  0  1  -3.053285935632   5.512370869829 -11.619108877833
1844  0  1  -3.053081578790   5.511906718819  -8.763262616520
1845  0  1  -3.053160444457   8.367100494600   8.367100454089
1846  0  1  -3.053278214605   8.367547094086  11.222848489452
1847  0  1  -3.053317564236   8.367699111808  14.078486252317
1848  0  1  -3.053278208021   8.367547090465 -11.618995985196
1849  0  1  -3.053160430544   8.367100488501  -8.763247960497
1850  0  1  -3.053330635046  11.223124237805   2.657183197600
1851  0  1  -3.053285931592  11.222961402048   5.512370826633
1852  0  1  -3.053278209700  11.222848519695   8.367547048514
1853  0  1  -3.053297884679  11.222919295359  11.222919260178
1854  0  1  -3.053312396586  11.223009635037  14.078486253886
1855  0  1  -3.053297878465  11.222919296360 -11.619066756017
1856  0  1  -3.053278195850  11.222848518628  -8.763694549011
1857  0  1  -3.053285916384  11.222961401920  -5.908518337030
1858  0  1  -3.053330624434  11.223124234003  -3.053330712490
1859  0  1  -3.053355843675  11.223174631916  -0.198073758319
1860  0  1  -3.053364990048  14.078486283164   2.657217561373
1861  0  1  -3.053336135998  14.078486282877   5.512472866686
1862  0  1  -3.053317562119  14.078486280239   8.367699072704
1863  0  1  -3.053312400403  14.078486280399  11.223009604406
1864  0  1  -3.053313031083  14.078486280745  14.078486257112
1865  0  1  -3.053312391134  14.078486280164 -11.619157090580
1866  0  1  -3.053317547514  14.078486282830  -8.763846564176
1867  0  1  -3.053336121507  14.078486284002  -5.908620365036
1868  0  1  -3.053364982387  14.078486285278  -3.053365065890
1869  0  1  -3.053380946031  14.078486285643  -0.198073753973
1870  0  1  -3.053330628103 -11.619271668866   2.657183210382
1871  0  1  -3.053285925469 -11.619108836403   5.512370837515
1872  0  1  -3.053278203503 -11.618995956264   8.367547056822
1873  0  1  -3.053297880854 -11.619066733001  11.222919265645
1874  0  1  -3.053312392333 -11.619157072611  14.078486256839
1875  0  1  -3.053297872405 -11.619066732718 -11.619066752038
1876  0  1  -3.053278191372 -11.618995952915  -8.763694543611
1877  0  1  -3.053285913364 -11.619108835025  -5.908518326105
1878  0  1  -3.053330622272 -11.619271667173  -3.053330699058
1879  0  1  -3.053355840744 -11.619322062836  -0.198073745071
1880  0  1  -3.053081575880  -8.763262567347   5.511906700128
1881  0  1  -3.053160434545  -8.763247925192   8.367100468870
1882  0  1  -3.053278206009  -8.763694527403  11.222848498304
1883  0  1  -3.053317552725  -8.763846546159  14.078486257883
1884  0  1  -3.053278194580  -8.763694522816 -11.618995979325
1885  0  1  -3.053160418738  -8.763247922467  -8.763247950055
1886  0  1  -3.053081562094  -8.763262565299  -5.908054181401
1887  0  1  -3.053285929059  -5.908518313158  11.222961389160
1888  0  1  -3.053336122195  -5.908620340936  14.078486253848
1889  0  1  -3.053285914233  -5.908518303238 -11.619108873074
1890  0  1  -3.053081558727  -5.908054157199  -8.763262604900
1891  0  1  -3.053330635958  -3.053330679760  11.223124235933
1892  0  1  -3.053364966858  -3.053365019266  14.078486234737
1893  0  1  -3.053330617947  -3.053330672925 -11.619271718145
1894  0  1  -3.053355847351  -0.198073694273  11.223174617121
1895  0  1  -3.053380937066  -0.198073712274  14.078486238592
1896  0  1  -3.053355839946  -0.198073721737 -11.619322117753
1897  0  1  -0.198073660889   2.657208520263  11.223174621485
1898  0  1  -0.198073665874   2.657233575332  14.078486249356
1899  0  1  -0.198073671507   2.657208452717 -11.619322112927
1900  0  1  -0.198073672290   5.512398645015  11.222987548437
1901  0  1  -0.198073674842   5.512493162775  14.078486255629
1902  0  1  -0.198073676083   5.512398626242 -11.619135051114
1903  0  1  -0.198073687084   8.367109828612   8.367109788484
1904  0  1  -0.198073675421   8.367557756832  11.222854080080
1905  0  1  -0.198073670455   8.367710824473  14.078486250800
1906  0  1  -0.198073668464   8.367557753319 -11.619001582809
1907  0  1  -0.198073667939   8.367109823840  -8.763257301265
1908  0  1  -0.198073683546  11.223174628809   2.657208405297
1909  0  1  -0.198073682706  11.222987575609   5.512398580753
1910  0  1  -0.198073676816  11.222854114070   8.367557715030
1911  0  1  -0.198073666182  11.222920116598  11.222920083485
1912  0  1  -0.198073661155  11.223012051112  14.078486249307
1913  0  1  -0.198073658356  11.222920118227 -11.619067585627
1914  0  1  -0.198073658200  11.222854114337  -8.763705218145
1915  0  1  -0.198073663382  11.222987573357  -5.908546091191
1916  0  1  -0.198073670911  11.223174624744  -3.053355922974
1917  0  1  -0.198073679297  11.223258776368  -0.198073760509
1918  0  1  -0.198073677987  14.078486282108   2.657233513465
1919  0  1  -0.198073677246  14.078486279862   5.512493108833
1920  0  1  -0.198073672909  14.078486279313   8.367710786553
1921  0  1  -0.198073663135  14.078486280083  11.223012021339
1922  0  1  -0.198073655631  14.078486284054  14.078486253442
1923  0  1  -0.198073653256  14.078486285093 -11.619159514729
1924  0  1  -0.198073653511  14.078486285592  -8.763858281986
1925  0  1  -0.198073657027  14.078486287981  -5.908640608803
1926  0  1  -0.198073664658  14.078486288166  -3.053381022421
1927  0  1  -0.198073672054  14.078486285244  -0.198073755404
1928  0  1  -0.198073675981 -11.619322062431   2.657208421759
1929  0  1  -0.198073675213 -11.619135012434   5.512398592448
1930  0  1  -0.198073670872 -11.619001553449   8.367557719852
1931  0  1  -0.198073664236 -11.619067557648  11.222920083715
1932  0  1  -0.198073660221 -11.619159488196  14.078486252121
1933  0  1  -0.198073656605 -11.619067553647 -11.619067580389
1934  0  1  -0.198073659045 -11.619001545846  -8.763705212406
1935  0  1  -0.198073661686 -11.619135004210  -5.908546083483
1936  0  1  -0.198073669077 -11.619322056025  -3.053355911135
1937  0  1  -0.198073675447 -11.619406210179  -0.198073743674
1938  0  1  -0.198073673746  -8.763257266972   8.367109803161
1939  0  1  -0.198073665346  -8.763705197782  11.222854088888
1940  0  1  -0.198073661091  -8.763858265351  14.078486254447
1941  0  1  -0.198073657681  -8.763705192819 -11.619001578140
1942  0  1  -0.198073660681  -8.763257262616  -8.763257291232
1943  0  1  -0.198073664675  -5.908546070540  11.222987560450
1944  0  1  -0.198073660420  -5.908640589742  14.078486249405
1945  0  1  -0.198073659838  -5.908546064723 -11.619135051605
1946  0  1  -0.198073654486  -3.053355874501  11.223174614028
1947  0  1  -0.198073660364  -3.053380978877  14.078486234580
1948  0  1  -0.198073662304  -3.053355887799 -11.619322115843
1949  0  1  -0.198073559371  -0.198073578946  11.223258681936
1950  0  1  -0.198073648011  -0.198073688029  14.078486229088
1951  0  1  -0.198073667644  -0.198073715848 -11.619406268775

