LAMMPS data file via write_data, version 28 Mar 2023, timestep = 30

1999 atoms
2 atom types

0 28.55312 xlo xhi
0 28.55312 ylo yhi
0 28.55312 zlo zhi
0 0 0 xy xz yz

Masses

1 55.85
2 30.97

Atoms # molecular

1945 0 1 27.125464 12.848904 12.848904 0 0 0
2 0 1 0.0015462181106960903 0.0015462181106959054 2.8552027181647577 0 0 0
3 0 1 7.645621424111411e-05 7.645621424091185e-05 5.7108401552288575 0 0 0
1944 0 1 27.125464 12.848904 9.993429770755883 0 0 0
1943 0 1 27.125464 12.848904 7.138128541048474 0 0 0
11 0 1 0.001546218110695864 2.855202718164757 0.001546218110696396 0 0 0
12 0 1 28.552698565073104 2.851669640802764 2.8516696408027644 -1 0 0
13 0 1 28.552860615365343 2.854553252213689 5.70970832364051 -1 0 0
14 0 1 28.553048160661415 2.8551369431529623 8.56572761720866 -1 0 0
15 0 1 28.553099305664514 2.855270559648778 11.421209901795848 -1 0 0
21 0 1 7.645621424266538e-05 5.710840155228857 7.645621424255901e-05 0 0 0
22 0 1 28.552860615365343 5.709708323640511 2.854553252213689 -1 0 0
23 0 1 28.5529203461142 5.709380547292294 5.7093805472922945 -1 0 0
24 0 1 28.55303677956427 5.710180977109324 8.565431782941609 -1 0 0
25 0 1 28.55308578593474 5.710483338040821 11.42112612354768 -1 0 0
1813 0 1 24.270456103849 4.282324439307395 7.137532852369797 0 0 0
32 0 1 28.553048160661415 8.565727617208658 2.855136943152963 -1 0 0
33 0 1 28.55303677956427 8.565431782941609 5.7101809771093235 -1 0 0
34 0 1 28.553056468861623 8.565480984177736 8.565480984177736 -1 0 0
35 0 1 28.553081014897078 8.56572136635796 11.42109476700418 -1 0 0
1812 0 1 24.270859806216368 4.280851734481017 4.280851734481017 0 0 0
42 0 1 28.553099305664514 11.421209901795848 2.855270559648778 -1 0 0
43 0 1 28.55308578593474 11.421126123547678 5.710483338040823 -1 0 0
44 0 1 28.553081014897078 11.421094767004178 8.56572136635796 -1 0 0
45 0 1 28.553082736100123 11.421136371279514 11.421136371279514 -1 0 0
101 0 1 2.8552027181647577 0.0015462181106962558 0.00154621811069616 0 0 0
1942 0 1 27.125464 12.848904 4.282910873883707 0 0 0
1941 0 1 27.125464 12.848904 1.4276512741364014 0 0 0
1935 0 1 27.125464 9.993429770755883 12.848904 0 0 0
1934 0 1 27.125464 9.993337837608166 9.993337837608166 0 0 0
1811 0 1 24.27102092717831 4.281727658671085 1.4267870728216938 0 0 0
112 0 1 2.8488240801090736 2.848824080109074 2.8488240801090745 0 0 0
113 0 1 2.854303748172986 2.8543037481729856 5.709370442540525 0 0 0
114 0 1 2.855063145631753 2.8550631456317537 8.56560568706476 0 0 0
115 0 1 2.855232614934395 2.8552326149343936 11.421174657909331 0 0 0
1805 0 1 24.270172684894316 1.4276353151056864 12.848904000000001 0 0 0
122 0 1 2.8543037481729856 5.709370442540525 2.8543037481729856 0 0 0
123 0 1 2.854666072852523 5.709346197609594 5.709346197609594 0 0 0
124 0 1 2.8550344970320944 5.710142518247605 8.565394465271776 0 0 0
125 0 1 2.8551968785377957 5.710451419083655 11.421111741148684 0 0 0
1804 0 1 24.27020704337304 1.4276009566269627 9.993541955897863 0 0 0
132 0 1 2.8550631456317532 8.56560568706476 2.855063145631754 0 0 0
133 0 1 2.8550344970320944 8.565394465271776 5.710142518247605 0 0 0
134 0 1 2.8551111052725395 8.5654759741255 8.5654759741255 0 0 0
135 0 1 2.855191180853219 8.565711012843467 11.42109350666175 0 0 0
1803 0 1 24.270335302927577 1.4274726970724216 7.138065929217681 0 0 0
142 0 1 2.855232614934395 11.421174657909331 2.855232614934394 0 0 0
143 0 1 2.8551968785377952 11.421111741148684 5.710451419083656 0 0 0
144 0 1 2.855191180853219 11.42109350666175 8.565711012843469 0 0 0
145 0 1 2.8552014743777865 11.421136138724515 11.421136138724515 0 0 0
201 0 1 5.7108401552288575 7.645621424244579e-05 7.645621424196793e-05 0 0 0
1933 0 1 27.125464 9.993271835386981 7.137975476746098 0 0 0
1932 0 1 27.125464 9.993405296821505 4.282816348048162 0 0 0
1931 0 1 27.125464 9.993592352300487 1.4276261705427655 0 0 0
1925 0 1 27.125464 7.138128541048474 12.848904 0 0 0
1802 0 1 24.271020927178306 1.4267870728216936 4.281727658671083 0 0 0
212 0 1 5.709370442540525 2.8543037481729865 2.8543037481729865 0 0 0
213 0 1 5.709346197609593 2.854666072852522 5.709346197609593 0 0 0
214 0 1 5.710142518247606 2.8550344970320944 8.565394465271778 0 0 0
215 0 1 5.710451419083655 2.855196878537794 11.421111741148682 0 0 0
1801 0 1 24.285958256407568 1.4118497435924344 1.411849743592435 0 0 0
222 0 1 5.709346197609593 5.709346197609593 2.854666072852523 0 0 0
223 0 1 5.709186045622851 5.709186045622851 5.709186045622852 0 0 0
224 0 1 5.7101046696520745 5.710104669652074 8.56533388124279 0 0 0
225 0 1 5.710415562241091 5.710415562241092 11.42108995967086 0 0 0
1745 0 1 21.414978134006347 12.848904 12.848904000000001 0 0 0
232 0 1 5.710142518247605 8.565394465271778 2.855034497032095 0 0 0
233 0 1 5.7101046696520745 8.56533388124279 5.710104669652074 0 0 0
234 0 1 5.7102812473905695 8.565479781195897 8.565479781195897 0 0 0
235 0 1 5.710424182822024 8.565700121496874 11.421093932497877 0 0 0
1744 0 1 21.414984096041593 12.848904 9.993422316076344 0 0 0
242 0 1 5.710451419083655 11.421111741148682 2.855196878537794 0 0 0
243 0 1 5.710415562241091 11.42108995967086 5.710415562241091 0 0 0
244 0 1 5.710424182822024 11.421093932497877 8.565700121496874 0 0 0
245 0 1 5.71045308969635 11.421137474277849 11.42113747427785 0 0 0
1924 0 1 27.125464 7.137975476746096 9.993271835386981 0 0 0
1923 0 1 27.125464 7.137527550025449 7.13752755002545 0 0 0
1922 0 1 27.125464 7.137587046027118 4.282374466660196 0 0 0
1921 0 1 27.125464 7.138185863000071 1.4275218101217129 0 0 0
1915 0 1 27.125464 4.282910873883707 12.848904 0 0 0
1743 0 1 21.414985911628175 12.848904 7.1380897831857695 0 0 0
312 0 1 8.56560568706476 2.8550631456317537 2.8550631456317537 0 0 0
313 0 1 8.565394465271778 2.8550344970320944 5.710142518247606 0 0 0
314 0 1 8.5654759741255 2.855111105272541 8.5654759741255 0 0 0
315 0 1 8.565711012843469 2.855191180853219 11.421093506661752 0 0 0
1742 0 1 21.41495996085621 12.848904 4.282848039143794 0 0 0
322 0 1 8.565394465271778 5.710142518247605 2.8550344970320953 0 0 0
323 0 1 8.56533388124279 5.7101046696520745 5.7101046696520745 0 0 0
324 0 1 8.565479781195897 5.7102812473905695 8.565479781195897 0 0 0
325 0 1 8.565700121496874 5.710424182822024 11.421093932497877 0 0 0
1741 0 1 21.414917380153014 12.848904000000001 1.427606459658455 0 0 0
332 0 1 8.5654759741255 8.5654759741255 2.8551111052725413 0 0 0
333 0 1 8.565479781195897 8.565479781195897 5.7102812473905695 0 0 0
334 0 1 8.565533766180069 8.565533766180069 8.565533766180069 0 0 0
335 0 1 8.56570790758977 8.56570790758977 11.42110512435223 0 0 0
1735 0 1 21.414984096041593 9.993422316076344 12.848904 0 0 0
342 0 1 8.565711012843469 11.42109350666175 2.855191180853219 0 0 0
343 0 1 8.565700121496874 11.421093932497875 5.710424182822024 0 0 0
344 0 1 8.56570790758977 11.42110512435223 8.56570790758977 0 0 0
345 0 1 8.5657538199842 11.421144193289217 11.421144193289217 0 0 0
1914 0 1 27.125464 4.282816348048162 9.993405296821507 0 0 0
1913 0 1 27.125464 4.282374466660196 7.137587046027117 0 0 0
1912 0 1 27.125464 4.280864985662146 4.280864985662148 0 0 0
1911 0 1 27.125464 4.282051524762177 1.4268422905471299 0 0 0
1905 0 1 27.125464 1.4276512741363983 12.848904000000001 0 0 0
1734 0 1 21.415017412319095 9.99333672776502 9.993336727765021 0 0 0
412 0 1 11.421174657909331 2.855232614934394 2.855232614934394 0 0 0
413 0 1 11.421111741148682 2.855196878537795 5.710451419083656 0 0 0
414 0 1 11.421093506661752 2.8551911808532187 8.565711012843469 0 0 0
415 0 1 11.421136138724515 2.855201474377786 11.421136138724515 0 0 0
1733 0 1 21.415071356412206 9.993252810063355 7.137942292812396 0 0 0
422 0 1 11.421111741148682 5.710451419083655 2.855196878537795 0 0 0
423 0 1 11.42108995967086 5.710415562241091 5.710415562241091 0 0 0
424 0 1 11.421093932497877 5.710424182822024 8.565700121496874 0 0 0
425 0 1 11.421137474277849 5.71045308969635 11.421137474277849 0 0 0
1732 0 1 21.415073590665543 9.993308466739206 4.282734409334457 0 0 0
432 0 1 11.421093506661752 8.565711012843469 2.855191180853218 0 0 0
433 0 1 11.421093932497877 8.565700121496874 5.710424182822025 0 0 0
434 0 1 11.421105124352232 8.56570790758977 8.56570790758977 0 0 0
435 0 1 11.421144193289217 8.565753819984199 11.421144193289217 0 0 0
1731 0 1 21.415019414943124 9.99337911911378 1.4275562558470458 0 0 0
442 0 1 11.421136138724515 11.421136138724515 2.855201474377785 0 0 0
443 0 1 11.421137474277849 11.421137474277849 5.710453089696351 0 0 0
444 0 1 11.421144193289217 11.421144193289217 8.565753819984199 0 0 0
445 0 1 11.421157284397243 11.421157284397243 11.421157284397243 0 0 0
1904 0 1 27.125464 1.4276261705427646 9.993592352300489 0 0 0
1903 0 1 27.125464 1.4275218101217126 7.138185863000071 0 0 0
1902 0 1 27.125464 1.4268422905471305 4.282051524762177 0 0 0
1901 0 1 27.125464 1.4211038082982195 1.4211038082982197 0 0 0
1845 0 1 24.2702246274233 12.848904000000001 12.848904000000001 0 0 0
1725 0 1 21.414985911628175 7.1380897831857695 12.848904 0 0 0
512 0 1 14.27663334209067 2.855232614934394 2.855232614934394 0 0 0
513 0 1 14.276696258851317 2.855196878537795 5.710451419083655 0 0 0
514 0 1 14.27671449333825 2.855191180853218 8.565711012843469 0 0 0
515 0 1 14.276671861275485 2.855201474377786 11.421136138724517 0 0 0
1724 0 1 21.415071356412206 7.1379422928123955 9.993252810063357 0 0 0
522 0 1 14.27669625885132 5.710451419083655 2.8551968785377952 0 0 0
523 0 1 14.276718040329142 5.710415562241091 5.710415562241091 0 0 0
524 0 1 14.276714067502125 5.710424182822025 8.565700121496874 0 0 0
525 0 1 14.276670525722153 5.710453089696351 11.421137474277849 0 0 0
1723 0 1 21.415327183228133 7.137503964373045 7.137503964373045 0 0 0
532 0 1 14.27671449333825 8.565711012843469 2.8551911808532187 0 0 0
533 0 1 14.276714067502125 8.565700121496874 5.710424182822025 0 0 0
534 0 1 14.276702875647771 8.56570790758977 8.56570790758977 0 0 0
535 0 1 14.276663806710783 8.565753819984199 11.42114419328922 0 0 0
1722 0 1 21.41560594900183 7.137353346647033 4.282202050998173 0 0 0
542 0 1 14.276671861275485 11.421136138724515 2.855201474377785 0 0 0
543 0 1 14.276670525722153 11.421137474277849 5.710453089696351 0 0 0
544 0 1 14.276663806710783 11.421144193289217 8.5657538199842 0 0 0
545 0 1 14.27665071560276 11.421157284397243 11.421157284397243 0 0 0
1844 0 1 24.27022526374557 12.848904000000001 9.99342735074107 0 0 0
1843 0 1 24.270220107094264 12.848904000000001 7.138116821597244 0 0 0
1842 0 1 24.270201540341546 12.848904000000001 4.282890619846988 0 0 0
1841 0 1 24.270172684894316 12.848904 1.4276353151056846 0 0 0
1835 0 1 24.27022526374557 9.993427350741069 12.848904000000003 0 0 0
1721 0 1 21.415483560692607 7.137532852369797 1.4273518961510008 0 0 0
612 0 1 17.13220231293524 2.855063145631752 2.8550631456317523 0 0 0
613 0 1 17.132413534728222 2.8550344970320944 5.710142518247606 0 0 0
614 0 1 17.1323320258745 2.85511110527254 8.5654759741255 0 0 0
615 0 1 17.132096987156533 2.8551911808532195 11.421093506661752 0 0 0
1715 0 1 21.414959960856205 4.282848039143794 12.848904 0 0 0
622 0 1 17.132413534728226 5.710142518247606 2.8550344970320944 0 0 0
623 0 1 17.132474118757212 5.7101046696520745 5.710104669652074 0 0 0
624 0 1 17.132328218804105 5.7102812473905695 8.565479781195899 0 0 0
625 0 1 17.132107878503128 5.710424182822024 11.421093932497875 0 0 0
1714 0 1 21.415073590665543 4.2827344093344575 9.993308466739206 0 0 0
632 0 1 17.1323320258745 8.5654759741255 2.8551111052725404 0 0 0
633 0 1 17.132328218804105 8.565479781195897 5.710281247390569 0 0 0
634 0 1 17.13227423381993 8.565533766180069 8.565533766180069 0 0 0
635 0 1 17.13210009241023 8.56570790758977 11.421105124352232 0 0 0
1713 0 1 21.41560594900183 4.282202050998173 7.137353346647033 0 0 0
642 0 1 17.132096987156533 11.421093506661752 2.8551911808532195 0 0 0
643 0 1 17.132107878503128 11.421093932497877 5.710424182822023 0 0 0
644 0 1 17.13210009241023 11.421105124352232 8.565707907589772 0 0 0
645 0 1 17.1320541800158 11.421144193289217 11.421144193289216 0 0 0
701 0 1 19.986967844771144 7.645621424132551e-05 7.645621424181556e-05 0 0 0
1834 0 1 24.270239779202825 9.993337009282904 9.993337009282904 0 0 0
1833 0 1 24.27025945959796 9.993266234918257 7.137964804617705 0 0 0
1832 0 1 24.270251744152958 9.993379119113778 4.282788585056877 0 0 0
1831 0 1 24.27020704337304 9.993541955897863 1.4276009566269614 0 0 0
1712 0 1 21.41776361721959 4.28004438278041 4.28004438278041 0 0 0
712 0 1 19.988437557459477 2.854303748172986 2.8543037481729856 0 0 0
713 0 1 19.988461802390407 2.854666072852523 5.709346197609593 0 0 0
714 0 1 19.987665481752394 2.8550344970320936 8.565394465271778 0 0 0
715 0 1 19.987356580916348 2.855196878537794 11.421111741148682 0 0 0
1711 0 1 21.416956265518984 4.280851734481017 1.4269481937836332 0 0 0
722 0 1 19.988461802390407 5.709346197609592 2.854666072852522 0 0 0
723 0 1 19.988621954377148 5.70918604562285 5.709186045622851 0 0 0
724 0 1 19.987703330347927 5.7101046696520745 8.56533388124279 0 0 0
725 0 1 19.98739243775891 5.71041556224109 11.42108995967086 0 0 0
1705 0 1 21.414917380153014 1.4276064596584541 12.848904 0 0 0
732 0 1 19.987665481752398 8.565394465271778 2.8550344970320936 0 0 0
733 0 1 19.987703330347927 8.565333881242791 5.7101046696520745 0 0 0
734 0 1 19.987526752609433 8.565479781195897 8.565479781195895 0 0 0
735 0 1 19.987383817177978 8.565700121496874 11.421093932497877 0 0 0
1704 0 1 21.415019414943124 1.427556255847045 9.99337911911378 0 0 0
742 0 1 19.987356580916348 11.421111741148682 2.8551968785377944 0 0 0
743 0 1 19.98739243775891 11.421089959670859 5.710415562241091 0 0 0
744 0 1 19.987383817177978 11.421093932497875 8.565700121496874 0 0 0
745 0 1 19.98735491030365 11.421137474277849 11.421137474277849 0 0 0
801 0 1 22.842605281835244 0.0015462181106958555 0.001546218110695742 0 0 0
1825 0 1 24.270220107094264 7.1381168215972455 12.848904000000003 0 0 0
1824 0 1 24.27025945959796 7.137964804617705 9.993266234918257 0 0 0
1823 0 1 24.270377238499503 7.137518206092476 7.1375182060924764 0 0 0
1822 0 1 24.270456103849 7.137532852369798 4.282324439307394 0 0 0
1703 0 1 21.415483560692607 1.4273518961509999 7.137532852369797 0 0 0
812 0 1 22.848983919890927 2.8488240801090736 2.848824080109075 0 0 0
813 0 1 22.843504251827014 2.854303748172986 5.709370442540525 0 0 0
814 0 1 22.84274485436825 2.855063145631753 8.565605687064759 0 0 0
815 0 1 22.842575385065608 2.8552326149343936 11.421174657909333 0 0 0
1702 0 1 21.416956265518984 1.426948193783634 4.280851734481016 0 0 0
822 0 1 22.843504251827017 5.709370442540526 2.8543037481729865 0 0 0
823 0 1 22.843141927147478 5.709346197609593 5.709346197609593 0 0 0
824 0 1 22.842773502967905 5.710142518247606 8.565394465271778 0 0 0
825 0 1 22.842611121462205 5.710451419083657 11.421111741148682 0 0 0
1701 0 1 21.416080341328918 1.4267870728216951 1.426787072821694 0 0 0
832 0 1 22.84274485436825 8.565605687064759 2.855063145631754 0 0 0
833 0 1 22.84277350296791 8.565394465271776 5.710142518247605 0 0 0
834 0 1 22.84269689472746 8.5654759741255 8.5654759741255 0 0 0
835 0 1 22.84261681914678 8.565711012843467 11.421093506661752 0 0 0
1645 0 1 18.559702150868656 12.848904000000003 12.848904000000001 0 0 0
842 0 1 22.842575385065608 11.421174657909333 2.8552326149343945 0 0 0
843 0 1 22.842611121462205 11.421111741148684 5.710451419083655 0 0 0
844 0 1 22.842616819146784 11.42109350666175 8.565711012843469 0 0 0
845 0 1 22.842606525622216 11.421136138724515 11.421136138724513 0 0 0
1821 0 1 24.27033530292758 7.138065929217681 1.4274726970724225 0 0 0
902 0 1 25.696261781889305 0.0015462181106976837 2.8552027181647577 0 0 0
903 0 1 25.69773154378576 7.645621424314287e-05 5.7108401552288575 0 0 0
1815 0 1 24.27020154034155 4.282890619846986 12.848904000000003 0 0 0
1814 0 1 24.270251744152958 4.282788585056875 9.993379119113778 0 0 0
911 0 1 25.696261781889305 2.855202718164757 0.001546218110695743 0 0 0
912 0 1 25.698229434926898 2.851669640802764 2.8516696408027644 0 0 0
913 0 1 25.69806738463466 2.8545532522136896 5.709708323640511 0 0 0
914 0 1 25.697879839338587 2.8551369431529627 8.565727617208658 0 0 0
915 0 1 25.697828694335488 2.8552705596487784 11.421209901795848 0 0 0
921 0 1 25.69773154378576 5.7108401552288575 7.64562142422325e-05 0 0 0
922 0 1 25.69806738463466 5.709708323640511 2.8545532522136887 0 0 0
923 0 1 25.698007653885803 5.709380547292293 5.7093805472922945 0 0 0
924 0 1 25.69789122043573 5.7101809771093235 8.56543178294161 0 0 0
925 0 1 25.69784221406526 5.710483338040821 11.421126123547678 0 0 0
1644 0 1 18.559717936346466 12.848904000000001 9.993421776305768 0 0 0
932 0 1 25.697879839338587 8.565727617208658 2.855136943152963 0 0 0
933 0 1 25.69789122043573 8.565431782941609 5.7101809771093235 0 0 0
934 0 1 25.69787153113838 8.565480984177736 8.565480984177736 0 0 0
935 0 1 25.697846985102924 8.56572136635796 11.42109476700418 0 0 0
1643 0 1 18.559736806316998 12.848904000000001 7.138071193683003 0 0 0
942 0 1 25.697828694335488 11.421209901795848 2.8552705596487784 0 0 0
943 0 1 25.69784221406526 11.421126123547678 5.710483338040821 0 0 0
944 0 1 25.697846985102924 11.421094767004178 8.56572136635796 0 0 0
945 0 1 25.69784526389988 11.421136371279514 11.421136371279516 0 0 0
1001 0 1 1.4118497435924346 1.4118497435924346 1.4118497435924349 0 0 0
1002 0 1 1.426787072821694 1.4267870728216945 4.281727658671084 0 0 0
1003 0 1 1.427472697072422 1.4274726970724219 7.138065929217682 0 0 0
1004 0 1 1.4276009566269616 1.4276009566269625 9.993541955897863 0 0 0
1005 0 1 1.4276353151056849 1.427635315105685 12.848904000000001 0 0 0
1011 0 1 1.426787072821694 4.281727658671084 1.426787072821694 0 0 0
1012 0 1 1.4269481937836335 4.280851734481017 4.280851734481017 0 0 0
1013 0 1 1.4273518961510006 4.282324439307395 7.137532852369798 0 0 0
1014 0 1 1.4275562558470454 4.282788585056876 9.99337911911378 0 0 0
1015 0 1 1.4276064596584541 4.282890619846987 12.848904000000001 0 0 0
1021 0 1 1.4274726970724223 7.138065929217681 1.4274726970724223 0 0 0
1022 0 1 1.4273518961510008 7.137532852369798 4.282324439307395 0 0 0
1023 0 1 1.4274307615004964 7.137518206092476 7.137518206092476 0 0 0
1024 0 1 1.4275485404020425 7.137964804617704 9.99326623491826 0 0 0
1025 0 1 1.4275878929057362 7.138116821597244 12.848904000000001 0 0 0
1031 0 1 1.427600956626962 9.993541955897863 1.4276009566269623 0 0 0
1032 0 1 1.4275562558470452 9.993379119113778 4.282788585056876 0 0 0
1033 0 1 1.427548540402042 9.99326623491826 7.137964804617705 0 0 0
1034 0 1 1.4275682207971774 9.993337009282904 9.993337009282904 0 0 0
1035 0 1 1.4275827362544335 9.99342735074107 12.848904000000001 0 0 0
1041 0 1 1.4276353151056855 12.848904000000001 1.4276353151056846 0 0 0
1042 0 1 1.4276064596584548 12.848904000000001 4.282890619846988 0 0 0
1043 0 1 1.427587892905736 12.848904 7.138116821597243 0 0 0
1044 0 1 1.4275827362544338 12.848904000000001 9.99342735074107 0 0 0
1045 0 1 1.427583372576704 12.848904000000001 12.848904000000001 0 0 0
1101 0 1 4.281727658671084 1.4267870728216931 1.4267870728216934 0 0 0
1102 0 1 4.280851734481017 1.4269481937836335 4.2808517344810175 0 0 0
1103 0 1 4.282324439307395 1.4273518961509999 7.137532852369797 0 0 0
1104 0 1 4.282788585056877 1.4275562558470454 9.99337911911378 0 0 0
1105 0 1 4.282890619846987 1.4276064596584546 12.848904000000001 0 0 0
1111 0 1 4.280851734481017 4.2808517344810175 1.4269481937836335 0 0 0
1112 0 1 4.28004438278041 4.280044382780409 4.28004438278041 0 0 0
1113 0 1 4.282202050998173 4.282202050998173 7.137353346647033 0 0 0
1114 0 1 4.2827344093344575 4.2827344093344575 9.993308466739208 0 0 0
1115 0 1 4.282848039143794 4.282848039143795 12.848904000000001 0 0 0
1121 0 1 4.282324439307395 7.137532852369797 1.427351896151 0 0 0
1122 0 1 4.282202050998173 7.137353346647033 4.2822020509981735 0 0 0
1123 0 1 4.282480816771867 7.137503964373044 7.137503964373044 0 0 0
1124 0 1 4.282736643587795 7.137942292812396 9.993252810063357 0 0 0
1125 0 1 4.282822088371827 7.1380897831857695 12.848904 0 0 0
1131 0 1 4.282788585056877 9.99337911911378 1.4275562558470456 0 0 0
1132 0 1 4.2827344093344575 9.993308466739206 4.282734409334457 0 0 0
1133 0 1 4.282736643587795 9.993252810063357 7.137942292812396 0 0 0
1134 0 1 4.282790587680907 9.99333672776502 9.993336727765021 0 0 0
1135 0 1 4.282823903958411 9.993422316076344 12.848904000000001 0 0 0
1141 0 1 4.282890619846989 12.848904 1.427606459658454 0 0 0
1142 0 1 4.282848039143794 12.848904000000001 4.282848039143795 0 0 0
1143 0 1 4.282822088371827 12.848904 7.1380897831857695 0 0 0
1144 0 1 4.28282390395841 12.848904000000001 9.993422316076344 0 0 0
1145 0 1 4.282829865993655 12.848904 12.848904000000001 0 0 0
1201 0 1 7.138065929217681 1.4274726970724219 1.427472697072422 0 0 0
1202 0 1 7.137532852369797 1.4273518961510006 4.282324439307395 0 0 0
1203 0 1 7.137518206092476 1.4274307615004962 7.1375182060924764 0 0 0
1204 0 1 7.137964804617705 1.4275485404020423 9.993266234918257 0 0 0
1205 0 1 7.138116821597244 1.427587892905736 12.848904000000001 0 0 0
1211 0 1 7.137532852369797 4.282324439307395 1.427351896151001 0 0 0
1212 0 1 7.137353346647033 4.282202050998173 4.282202050998173 0 0 0
1213 0 1 7.137503964373045 4.282480816771867 7.137503964373046 0 0 0
1214 0 1 7.137942292812396 4.282736643587795 9.993252810063355 0 0 0
1215 0 1 7.13808978318577 4.282822088371827 12.848904000000001 0 0 0
1221 0 1 7.137518206092476 7.137518206092476 1.4274307615004966 0 0 0
1222 0 1 7.137503964373045 7.137503964373046 4.282480816771867 0 0 0
1223 0 1 7.137527731514223 7.137527731514222 7.137527731514223 0 0 0
1224 0 1 7.137939862350664 7.137939862350665 9.993250459772455 0 0 0
1225 0 1 7.138071193683004 7.138071193683005 12.848904000000001 0 0 0
1231 0 1 7.137964804617704 9.99326623491826 1.4275485404020423 0 0 0
1232 0 1 7.137942292812396 9.993252810063355 4.282736643587795 0 0 0
1233 0 1 7.137939862350665 9.993250459772455 7.137939862350665 0 0 0
1234 0 1 7.138037070824846 9.993346506656222 9.993346506656222 0 0 0
1235 0 1 7.138090063653535 9.993421776305768 12.848904000000001 0 0 0
1241 0 1 7.138116821597243 12.848904000000001 1.4275878929057355 0 0 0
1242 0 1 7.1380897831857695 12.848904000000001 4.282822088371827 0 0 0
1243 0 1 7.138071193683003 12.848904000000001 7.138071193683004 0 0 0
1244 0 1 7.138090063653536 12.848904000000001 9.993421776305768 0 0 0
1245 0 1 7.138105849131345 12.848904000000001 12.848904000000001 0 0 0
1301 0 1 9.993541955897864 1.4276009566269625 1.4276009566269625 0 0 0
1302 0 1 9.99337911911378 1.4275562558470454 4.282788585056877 0 0 0
1303 0 1 9.99326623491826 1.4275485404020416 7.137964804617704 0 0 0
1304 0 1 9.993337009282905 1.4275682207971765 9.993337009282905 0 0 0
1305 0 1 9.99342735074107 1.4275827362544335 12.848904 0 0 0
1311 0 1 9.99337911911378 4.282788585056877 1.427556255847046 0 0 0
1312 0 1 9.993308466739208 4.2827344093344575 4.2827344093344575 0 0 0
1313 0 1 9.993252810063357 4.282736643587796 7.1379422928123955 0 0 0
1314 0 1 9.99333672776502 4.282790587680908 9.993336727765021 0 0 0
1315 0 1 9.993422316076344 4.282823903958409 12.848904 0 0 0
1321 0 1 9.99326623491826 7.137964804617704 1.4275485404020423 0 0 0
1322 0 1 9.993252810063357 7.1379422928123955 4.282736643587795 0 0 0
1323 0 1 9.993250459772456 7.137939862350663 7.137939862350664 0 0 0
1324 0 1 9.993346506656222 7.138037070824846 9.993346506656222 0 0 0
1325 0 1 9.993421776305768 7.138090063653535 12.848904000000001 0 0 0
1331 0 1 9.993337009282905 9.993337009282905 1.4275682207971763 0 0 0
1332 0 1 9.99333672776502 9.99333672776502 4.282790587680908 0 0 0
1333 0 1 9.993346506656222 9.993346506656222 7.138037070824845 0 0 0
1334 0 1 9.993383226711726 9.993383226711726 9.993383226711726 0 0 0
1335 0 1 9.993433920475866 9.993433920475866 12.848904000000001 0 0 0
1341 0 1 9.99342735074107 12.848904000000001 1.4275827362544347 0 0 0
1342 0 1 9.993422316076344 12.848904000000001 4.28282390395841 0 0 0
1343 0 1 9.99342177630577 12.848904 7.138090063653536 0 0 0
1344 0 1 9.993433920475866 12.848904000000001 9.993433920475866 0 0 0
1345 0 1 9.99345449047827 12.848904 12.848904 0 0 0
1401 0 1 12.848904000000001 1.427635315105685 1.4276353151056853 0 0 0
1402 0 1 12.848904000000001 1.4276064596584537 4.282890619846988 0 0 0
1403 0 1 12.848904000000001 1.4275878929057362 7.1381168215972455 0 0 0
1404 0 1 12.848904000000001 1.4275827362544333 9.99342735074107 0 0 0
1405 0 1 12.848904000000001 1.4275833725767044 12.848904000000001 0 0 0
1411 0 1 12.848904000000001 4.282890619846987 1.4276064596584537 0 0 0
1412 0 1 12.848904000000001 4.282848039143794 4.282848039143795 0 0 0
1413 0 1 12.848904000000001 4.282822088371826 7.1380897831857695 0 0 0
1414 0 1 12.848904000000001 4.28282390395841 9.993422316076344 0 0 0
1415 0 1 12.848904000000001 4.282829865993653 12.848904000000001 0 0 0
1421 0 1 12.848904000000001 7.1381168215972455 1.4275878929057353 0 0 0
1422 0 1 12.848904000000001 7.13808978318577 4.282822088371827 0 0 0
1423 0 1 12.848904000000001 7.138071193683004 7.138071193683004 0 0 0
1424 0 1 12.848904000000001 7.138090063653534 9.993421776305768 0 0 0
1425 0 1 12.848904000000001 7.138105849131345 12.848904000000001 0 0 0
1431 0 1 12.848904 9.99342735074107 1.427582736254434 0 0 0
1432 0 1 12.848904000000001 9.993422316076344 4.28282390395841 0 0 0
1433 0 1 12.848904000000001 9.993421776305768 7.138090063653535 0 0 0
1434 0 1 12.848904000000001 9.993433920475866 9.993433920475866 0 0 0
1435 0 1 12.848904000000001 9.99345449047827 12.848904000000001 0 0 0
1441 0 1 12.848904000000001 12.848904000000001 1.4275833725767046 0 0 0
1442 0 1 12.848904000000001 12.848904000000001 4.282829865993654 0 0 0
1443 0 1 12.848904000000001 12.848904000000001 7.138105849131345 0 0 0
1444 0 1 12.848904000000001 12.848904000000001 9.993454490478271 0 0 0
1445 0 1 12.848904000000001 12.848904000000001 12.848904000000001 0 0 0
1501 0 1 15.70426604410214 1.4276009566269632 1.4276009566269625 0 0 0
1502 0 1 15.704428880886223 1.4275562558470452 4.282788585056876 0 0 0
1503 0 1 15.704541765081743 1.4275485404020423 7.137964804617704 0 0 0
1504 0 1 15.704470990717098 1.427568220797176 9.993337009282905 0 0 0
1505 0 1 15.70438064925893 1.4275827362544344 12.848904 0 0 0
1511 0 1 15.704428880886223 4.282788585056876 1.4275562558470454 0 0 0
1512 0 1 15.704499533260794 4.282734409334457 4.2827344093344575 0 0 0
1513 0 1 15.704555189936645 4.2827366435877945 7.1379422928123955 0 0 0
1514 0 1 15.704471272234983 4.282790587680909 9.993336727765021 0 0 0
1515 0 1 15.70438568392366 4.282823903958409 12.848904 0 0 0
1521 0 1 15.704541765081743 7.137964804617705 1.4275485404020416 0 0 0
1522 0 1 15.704555189936645 7.137942292812396 4.282736643587795 0 0 0
1523 0 1 15.704557540227547 7.137939862350665 7.137939862350664 0 0 0
1524 0 1 15.70446149334378 7.138037070824845 9.993346506656222 0 0 0
1525 0 1 15.704386223694234 7.138090063653536 12.848904 0 0 0
1531 0 1 15.704470990717098 9.993337009282904 1.427568220797176 0 0 0
1532 0 1 15.704471272234981 9.99333672776502 4.282790587680908 0 0 0
1533 0 1 15.70446149334378 9.99334650665622 7.138037070824845 0 0 0
1534 0 1 15.704424773288276 9.993383226711726 9.993383226711726 0 0 0
1535 0 1 15.704374079524136 9.993433920475866 12.848904 0 0 0
1541 0 1 15.70438064925893 12.848904000000001 1.4275827362544335 0 0 0
1542 0 1 15.70438568392366 12.848904 4.282823903958409 0 0 0
1543 0 1 15.70438622369423 12.848904 7.138090063653535 0 0 0
1544 0 1 15.704374079524136 12.848904 9.993433920475866 0 0 0
1545 0 1 15.704353509521729 12.848904 12.848904 0 0 0
1601 0 1 18.55974207078232 1.4274726970724216 1.427472697072422 0 0 0
1602 0 1 18.560275147630204 1.4273518961509994 4.282324439307394 0 0 0
1603 0 1 18.560289793907526 1.4274307615004955 7.1375182060924764 0 0 0
1604 0 1 18.559843195382296 1.4275485404020412 9.993266234918257 0 0 0
1605 0 1 18.55969117840276 1.4275878929057357 12.848904000000001 0 0 0
1611 0 1 18.560275147630204 4.282324439307395 1.4273518961510003 0 0 0
1612 0 1 18.56045465335297 4.2822020509981735 4.2822020509981735 0 0 0
1613 0 1 18.560304035626956 4.2824808167718675 7.137503964373045 0 0 0
1614 0 1 18.559865707187605 4.282736643587795 9.993252810063357 0 0 0
1615 0 1 18.559718216814233 4.282822088371826 12.848904000000001 0 0 0
1621 0 1 18.560289793907526 7.137518206092476 1.4274307615004966 0 0 0
1622 0 1 18.560304035626956 7.137503964373044 4.282480816771867 0 0 0
1623 0 1 18.56028026848578 7.137527731514222 7.137527731514224 0 0 0
1624 0 1 18.559868137649335 7.137939862350664 9.993250459772455 0 0 0
1625 0 1 18.559736806316998 7.138071193683005 12.848904000000001 0 0 0
1631 0 1 18.559843195382296 9.99326623491826 1.427548540402042 0 0 0
1632 0 1 18.559865707187605 9.993252810063357 4.282736643587795 0 0 0
1633 0 1 18.55986813764934 9.993250459772455 7.137939862350664 0 0 0
1634 0 1 18.559770929175155 9.993346506656222 9.99334650665622 0 0 0
1635 0 1 18.559717936346466 9.993421776305766 12.848904000000001 0 0 0
1641 0 1 18.55969117840276 12.848904000000001 1.427587892905735 0 0 0
1642 0 1 18.55971821681423 12.848904 4.282822088371827 0 0 0
1950 0 1 27.125464 12.848904000000001 27.125464 0 0 0
1949 0 1 27.125464 12.848904 24.2701567258636 0 0 0
8 0 1 7.645621424104767e-05 7.645621424224863e-05 19.986967844771144 0 0 0
9 0 1 0.0015462181106970817 0.0015462181106974948 22.842605281835244 0 0 0
1948 0 1 27.125464 12.848904000000003 21.414897126116294 0 0 0
16 0 1 28.553099305664514 2.855270559648778 14.276598098204152 -1 0 0
17 0 1 28.55304816066141 2.8551369431529623 17.132080382791344 -1 0 0
18 0 1 28.552860615365343 2.8545532522136887 19.988099676359493 -1 0 0
19 0 1 28.552698565073104 2.851669640802764 22.846138359197237 -1 0 0
20 0 1 0.001546218110696632 2.8552027181647577 25.696261781889305 0 0 0
26 0 1 28.55308578593474 5.710483338040821 14.276681876452322 -1 0 0
27 0 1 28.55303677956427 5.7101809771093235 17.132376217058393 -1 0 0
28 0 1 28.5529203461142 5.7093805472922945 19.988427452707707 -1 0 0
29 0 1 28.552860615365343 5.70970832364051 22.84325474778631 -1 0 0
30 0 1 7.645621424215458e-05 5.7108401552288575 25.69773154378576 0 0 0
36 0 1 28.55308101489708 8.565721366357963 14.27671323299582 -1 0 0
37 0 1 28.55305646886162 8.565480984177736 17.132327015822266 -1 0 0
38 0 1 28.55303677956427 8.565431782941609 19.987627022890678 -1 0 0
39 0 1 28.55304816066141 8.56572761720866 22.84267105684704 -1 0 0
40 0 1 28.55309963142685 8.566007208230582 25.697828368573152 -1 0 0
46 0 1 28.553082736100123 11.421136371279514 14.276671628720486 -1 0 0
47 0 1 28.553081014897078 11.421094767004178 17.13208663364204 -1 0 0
48 0 1 28.55308578593474 11.42112612354768 19.98732466195918 -1 0 0
49 0 1 28.553099305664514 11.421209901795848 22.842537440351222 -1 0 0
50 0 1 28.553115537559968 11.421269928813565 25.697812462440034 -1 0 0
1947 0 1 27.125463999999997 12.848904000000001 18.559679458951525 0 0 0
1946 0 1 27.125464 12.848904000000001 15.704378229244119 0 0 0
1940 0 1 27.125464 9.993676505586409 27.125464 0 0 0
1939 0 1 27.125464 9.993592352300487 24.270181829457236 0 0 0
110 0 1 2.8552027181647577 0.0015462181106962358 25.696261781889305 0 0 0
116 0 1 2.855232614934393 2.8552326149343945 14.27663334209067 0 0 0
117 0 1 2.8550631456317537 2.8550631456317537 17.13220231293524 0 0 0
118 0 1 2.8543037481729865 2.8543037481729865 19.988437557459477 0 0 0
119 0 1 2.848824080109074 2.848824080109074 22.848983919890927 0 0 0
120 0 1 2.851669640802764 2.851669640802764 25.698229434926898 0 0 0
126 0 1 2.855196878537795 5.710451419083655 14.27669625885132 0 0 0
127 0 1 2.855034497032095 5.710142518247606 17.132413534728226 0 0 0
128 0 1 2.8546660728525226 5.709346197609593 19.988461802390407 0 0 0
129 0 1 2.8543037481729865 5.709370442540525 22.843504251827017 0 0 0
130 0 1 2.8545532522136887 5.70970832364051 25.69806738463466 0 0 0
136 0 1 2.855191180853218 8.565711012843469 14.27671449333825 0 0 0
137 0 1 2.8551111052725413 8.5654759741255 17.1323320258745 0 0 0
138 0 1 2.855034497032095 8.565394465271776 19.987665481752394 0 0 0
139 0 1 2.855063145631754 8.56560568706476 22.84274485436825 0 0 0
140 0 1 2.855136943152963 8.565727617208658 25.69787983933859 0 0 0
146 0 1 2.855201474377786 11.421136138724515 14.276671861275485 0 0 0
147 0 1 2.855191180853219 11.421093506661752 17.132096987156533 0 0 0
148 0 1 2.8551968785377944 11.421111741148682 19.987356580916344 0 0 0
149 0 1 2.8552326149343945 11.421174657909331 22.842575385065608 0 0 0
150 0 1 2.855270559648778 11.421209901795848 25.697828694335488 0 0 0
1938 0 1 27.125464 9.993405296821505 21.41499165195184 0 0 0
1937 0 1 27.125464 9.993271835386981 18.559832523253903 0 0 0
1936 0 1 27.125464 9.993337837608166 15.704470162391836 0 0 0
1930 0 1 27.125464 7.1385898781126835 27.125464 0 0 0
210 0 1 5.710840155228858 7.645621424237478e-05 25.69773154378576 0 0 0
216 0 1 5.710451419083655 2.8551968785377952 14.27669625885132 0 0 0
217 0 1 5.710142518247606 2.855034497032094 17.132413534728226 0 0 0
218 0 1 5.709346197609593 2.8546660728525226 19.988461802390407 0 0 0
219 0 1 5.709370442540526 2.854303748172986 22.843504251827017 0 0 0
220 0 1 5.70970832364051 2.8545532522136883 25.69806738463466 0 0 0
226 0 1 5.710415562241091 5.710415562241091 14.276718040329142 0 0 0
227 0 1 5.7101046696520745 5.7101046696520745 17.132474118757212 0 0 0
228 0 1 5.709186045622851 5.709186045622851 19.98862195437715 0 0 0
229 0 1 5.709346197609593 5.709346197609593 22.843141927147478 0 0 0
230 0 1 5.7093805472922945 5.7093805472922945 25.698007653885803 0 0 0
236 0 1 5.710424182822025 8.565700121496874 14.276714067502125 0 0 0
237 0 1 5.7102812473905695 8.565479781195897 17.132328218804105 0 0 0
238 0 1 5.7101046696520745 8.56533388124279 19.987703330347927 0 0 0
239 0 1 5.710142518247606 8.565394465271776 22.84277350296791 0 0 0
240 0 1 5.710180977109324 8.565431782941609 25.69789122043573 0 0 0
246 0 1 5.71045308969635 11.421137474277849 14.276670525722153 0 0 0
247 0 1 5.710424182822025 11.421093932497877 17.132107878503128 0 0 0
248 0 1 5.710415562241091 11.421089959670859 19.98739243775891 0 0 0
249 0 1 5.710451419083655 11.421111741148682 22.842611121462205 0 0 0
250 0 1 5.710483338040822 11.421126123547678 25.697842214065258 0 0 0
1929 0 1 27.125464 7.138185863000071 24.270286189878288 0 0 0
1928 0 1 27.125464 7.137587046027118 21.415433533339808 0 0 0
1927 0 1 27.125464 7.13752755002545 18.560280449974552 0 0 0
1926 0 1 27.125464 7.137975476746097 15.70453616461302 0 0 0
1920 0 1 27.125464 4.2853883560420485 27.125464 0 0 0
316 0 1 8.565711012843469 2.855191180853218 14.27671449333825 0 0 0
317 0 1 8.5654759741255 2.855111105272541 17.1323320258745 0 0 0
318 0 1 8.565394465271778 2.8550344970320958 19.987665481752398 0 0 0
319 0 1 8.56560568706476 2.8550631456317537 22.84274485436825 0 0 0
320 0 1 8.565727617208658 2.8551369431529627 25.697879839338587 0 0 0
326 0 1 8.565700121496874 5.710424182822024 14.276714067502125 0 0 0
327 0 1 8.565479781195897 5.710281247390569 17.132328218804105 0 0 0
328 0 1 8.56533388124279 5.710104669652074 19.987703330347927 0 0 0
329 0 1 8.565394465271778 5.710142518247605 22.84277350296791 0 0 0
330 0 1 8.56543178294161 5.710180977109324 25.69789122043573 0 0 0
336 0 1 8.56570790758977 8.56570790758977 14.276702875647771 0 0 0
337 0 1 8.565533766180069 8.565533766180069 17.13227423381993 0 0 0
338 0 1 8.565479781195897 8.565479781195897 19.98752675260943 0 0 0
339 0 1 8.5654759741255 8.5654759741255 22.84269689472746 0 0 0
340 0 1 8.565480984177736 8.565480984177736 25.69787153113838 0 0 0
346 0 1 8.565753819984199 11.421144193289217 14.276663806710783 0 0 0
347 0 1 8.56570790758977 11.421105124352232 17.13210009241023 0 0 0
348 0 1 8.565700121496874 11.421093932497875 19.987383817177978 0 0 0
349 0 1 8.565711012843467 11.42109350666175 22.84261681914678 0 0 0
350 0 1 8.565721366357963 11.42109476700418 25.697846985102924 0 0 0
1919 0 1 27.125464 4.282051524762176 24.27096570945287 0 0 0
1918 0 1 27.125464 4.280864985662147 21.416943014337853 0 0 0
1917 0 1 27.125464 4.282374466660194 18.560220953972884 0 0 0
1916 0 1 27.125464 4.282816348048162 15.704402703178495 0 0 0
1910 0 1 27.125464 1.4666024618451834 27.125464 0 0 0
416 0 1 11.421136138724517 2.855201474377785 14.276671861275485 0 0 0
417 0 1 11.421093506661752 2.8551911808532187 17.132096987156533 0 0 0
418 0 1 11.421111741148682 2.8551968785377952 19.987356580916348 0 0 0
419 0 1 11.421174657909331 2.855232614934394 22.842575385065608 0 0 0
420 0 1 11.421209901795848 2.8552705596487775 25.697828694335488 0 0 0
426 0 1 11.42113747427785 5.710453089696351 14.276670525722153 0 0 0
427 0 1 11.421093932497877 5.710424182822024 17.132107878503128 0 0 0
428 0 1 11.42108995967086 5.710415562241091 19.98739243775891 0 0 0
429 0 1 11.421111741148682 5.710451419083656 22.842611121462205 0 0 0
430 0 1 11.421126123547678 5.710483338040822 25.69784221406526 0 0 0
436 0 1 11.42114419328922 8.565753819984199 14.276663806710783 0 0 0
437 0 1 11.421105124352232 8.56570790758977 17.13210009241023 0 0 0
438 0 1 11.421093932497877 8.565700121496874 19.987383817177975 0 0 0
439 0 1 11.421093506661752 8.565711012843467 22.842616819146784 0 0 0
440 0 1 11.421094767004178 8.565721366357963 25.69784698510292 0 0 0
446 0 1 11.421157284397243 11.421157284397243 14.27665071560276 0 0 0
447 0 1 11.421144193289217 11.421144193289217 17.1320541800158 0 0 0
448 0 1 11.421137474277849 11.421137474277849 19.98735491030365 0 0 0
449 0 1 11.421136138724515 11.421136138724515 22.842606525622216 0 0 0
450 0 1 11.421136371279514 11.421136371279514 25.69784526389988 0 0 0
1909 0 1 27.125464 1.4211038082982195 24.276704191701782 0 0 0
1908 0 1 27.125464000000004 1.4268422905471299 21.415756475237824 0 0 0
1907 0 1 27.125464 1.4275218101217133 18.55962213699993 0 0 0
1906 0 1 27.125464 1.4276261705427638 15.704215647699515 0 0 0
1850 0 1 24.2701567258636 12.848904000000001 27.125464 0 0 0
516 0 1 14.276671861275485 2.8552014743777847 14.276671861275485 0 0 0
517 0 1 14.27671449333825 2.8551911808532187 17.132096987156533 0 0 0
518 0 1 14.276696258851317 2.855196878537795 19.987356580916344 0 0 0
519 0 1 14.27663334209067 2.8552326149343936 22.842575385065608 0 0 0
520 0 1 14.276598098204152 2.855270559648779 25.697828694335488 0 0 0
526 0 1 14.276670525722153 5.710453089696351 14.276670525722153 0 0 0
527 0 1 14.276714067502125 5.710424182822023 17.132107878503128 0 0 0
528 0 1 14.276718040329142 5.71041556224109 19.98739243775891 0 0 0
529 0 1 14.276696258851317 5.710451419083656 22.842611121462205 0 0 0
530 0 1 14.276681876452322 5.710483338040821 25.69784221406526 0 0 0
536 0 1 14.276663806710783 8.565753819984199 14.276663806710781 0 0 0
537 0 1 14.276702875647771 8.56570790758977 17.132100092410234 0 0 0
538 0 1 14.276714067502121 8.565700121496874 19.987383817177975 0 0 0
539 0 1 14.27671449333825 8.565711012843467 22.842616819146784 0 0 0
540 0 1 14.27671323299582 8.565721366357963 25.69784698510292 0 0 0
546 0 1 14.276650715602758 11.421157284397243 14.27665071560276 0 0 0
547 0 1 14.276663806710783 11.421144193289217 17.1320541800158 0 0 0
548 0 1 14.276670525722153 11.421137474277849 19.987354910303655 0 0 0
549 0 1 14.276671861275485 11.421136138724517 22.842606525622216 0 0 0
550 0 1 14.276671628720486 11.421136371279516 25.69784526389988 0 0 0
1849 0 1 24.270172684894316 12.848904 24.270172684894316 0 0 0
1848 0 1 24.270201540341546 12.848904000000001 21.41491738015301 0 0 0
1847 0 1 24.270220107094268 12.848904000000001 18.55969117840276 0 0 0
1846 0 1 24.27022526374557 12.848904000000001 15.704380649258926 0 0 0
1840 0 1 24.270181829457236 9.993592352300489 27.125464 0 0 0
616 0 1 17.132096987156533 2.8551911808532187 14.276714493338247 0 0 0
617 0 1 17.1323320258745 2.855111105272541 17.1323320258745 0 0 0
618 0 1 17.132413534728226 2.8550344970320953 19.987665481752394 0 0 0
619 0 1 17.13220231293524 2.855063145631753 22.84274485436825 0 0 0
620 0 1 17.132080382791344 2.8551369431529627 25.697879839338587 0 0 0
626 0 1 17.132107878503128 5.710424182822024 14.276714067502128 0 0 0
627 0 1 17.132328218804105 5.7102812473905695 17.1323282188041 0 0 0
628 0 1 17.132474118757212 5.710104669652074 19.987703330347927 0 0 0
629 0 1 17.132413534728226 5.710142518247607 22.842773502967905 0 0 0
630 0 1 17.132376217058393 5.7101809771093235 25.69789122043573 0 0 0
636 0 1 17.132100092410234 8.56570790758977 14.276702875647768 0 0 0
637 0 1 17.13227423381993 8.565533766180069 17.13227423381993 0 0 0
638 0 1 17.132328218804105 8.565479781195897 19.98752675260943 0 0 0
639 0 1 17.1323320258745 8.5654759741255 22.84269689472746 0 0 0
640 0 1 17.132327015822266 8.565480984177738 25.69787153113838 0 0 0
646 0 1 17.132054180015803 11.421144193289217 14.276663806710783 0 0 0
647 0 1 17.13210009241023 11.421105124352232 17.13210009241023 0 0 0
648 0 1 17.132107878503128 11.421093932497875 19.987383817177978 0 0 0
649 0 1 17.132096987156533 11.421093506661752 22.84261681914678 0 0 0
650 0 1 17.13208663364204 11.421094767004178 25.697846985102924 0 0 0
1839 0 1 24.27020704337304 9.993541955897864 24.270207043373038 0 0 0
1838 0 1 24.270251744152954 9.993379119113778 21.415019414943124 0 0 0
1837 0 1 24.27025945959796 9.99326623491826 18.559843195382296 0 0 0
1836 0 1 24.270239779202825 9.993337009282905 15.704470990717095 0 0 0
710 0 1 19.986967844771144 7.645621424133378e-05 25.69773154378576 0 0 0
716 0 1 19.987356580916344 2.8551968785377944 14.276696258851317 0 0 0
717 0 1 19.987665481752398 2.855034497032094 17.132413534728226 0 0 0
718 0 1 19.988461802390407 2.854666072852523 19.988461802390407 0 0 0
719 0 1 19.988437557459477 2.8543037481729847 22.843504251827017 0 0 0
720 0 1 19.988099676359493 2.8545532522136887 25.69806738463466 0 0 0
726 0 1 19.98739243775891 5.710415562241091 14.276718040329142 0 0 0
727 0 1 19.98770333034793 5.710104669652074 17.13247411875721 0 0 0
728 0 1 19.98862195437715 5.70918604562285 19.988621954377148 0 0 0
729 0 1 19.988461802390407 5.709346197609594 22.843141927147478 0 0 0
730 0 1 19.988427452707707 5.709380547292293 25.698007653885803 0 0 0
736 0 1 19.987383817177975 8.565700121496874 14.276714067502121 0 0 0
737 0 1 19.987526752609433 8.565479781195897 17.132328218804105 0 0 0
738 0 1 19.987703330347927 8.565333881242791 19.987703330347927 0 0 0
739 0 1 19.987665481752398 8.565394465271778 22.84277350296791 0 0 0
740 0 1 19.987627022890678 8.56543178294161 25.69789122043573 0 0 0
746 0 1 19.98735491030365 11.42113747427785 14.276670525722153 0 0 0
747 0 1 19.987383817177978 11.421093932497877 17.132107878503128 0 0 0
748 0 1 19.98739243775891 11.42108995967086 19.98739243775891 0 0 0
749 0 1 19.987356580916348 11.421111741148682 22.842611121462205 0 0 0
750 0 1 19.98732466195918 11.42112612354768 25.697842214065258 0 0 0
1830 0 1 24.270286189878288 7.138185863000072 27.125464 0 0 0
1829 0 1 24.270335302927577 7.138065929217681 24.270335302927577 0 0 0
1828 0 1 24.270456103849 7.137532852369797 21.415483560692607 0 0 0
1827 0 1 24.270377238499506 7.137518206092476 18.560289793907526 0 0 0
810 0 1 22.842605281835244 0.0015462181106964618 25.696261781889305 0 0 0
816 0 1 22.842575385065608 2.855232614934394 14.27663334209067 0 0 0
817 0 1 22.84274485436825 2.8550631456317523 17.13220231293524 0 0 0
818 0 1 22.843504251827017 2.8543037481729856 19.988437557459477 0 0 0
819 0 1 22.848983919890927 2.8488240801090736 22.848983919890927 0 0 0
820 0 1 22.846138359197237 2.8516696408027635 25.698229434926898 0 0 0
826 0 1 22.84261112146221 5.710451419083656 14.27669625885132 0 0 0
827 0 1 22.842773502967905 5.710142518247607 17.132413534728222 0 0 0
828 0 1 22.843141927147478 5.709346197609593 19.988461802390407 0 0 0
829 0 1 22.843504251827014 5.709370442540526 22.843504251827014 0 0 0
830 0 1 22.843254747786315 5.70970832364051 25.69806738463466 0 0 0
836 0 1 22.842616819146784 8.565711012843467 14.27671449333825 0 0 0
837 0 1 22.84269689472746 8.5654759741255 17.1323320258745 0 0 0
838 0 1 22.84277350296791 8.565394465271778 19.987665481752398 0 0 0
839 0 1 22.84274485436825 8.565605687064759 22.84274485436825 0 0 0
840 0 1 22.84267105684704 8.565727617208658 25.69787983933859 0 0 0
846 0 1 22.842606525622216 11.421136138724515 14.276671861275489 0 0 0
847 0 1 22.84261681914678 11.42109350666175 17.132096987156533 0 0 0
848 0 1 22.84261112146221 11.42111174114868 19.987356580916344 0 0 0
849 0 1 22.842575385065608 11.421174657909331 22.842575385065608 0 0 0
850 0 1 22.842537440351226 11.421209901795848 25.697828694335488 0 0 0
1826 0 1 24.27025945959796 7.137964804617704 15.704541765081743 0 0 0
1820 0 1 24.270965709452874 4.282051524762178 27.125464 0 0 0
908 0 1 25.69773154378576 7.645621424046905e-05 19.986967844771144 0 0 0
909 0 1 25.696261781889305 0.0015462181106957408 22.842605281835244 0 0 0
1819 0 1 24.27102092717831 4.281727658671084 24.271020927178306 0 0 0
916 0 1 25.697828694335488 2.855270559648778 14.276598098204152 0 0 0
917 0 1 25.697879839338587 2.8551369431529614 17.132080382791344 0 0 0
918 0 1 25.69806738463466 2.8545532522136905 19.98809967635949 0 0 0
919 0 1 25.698229434926898 2.851669640802765 22.846138359197237 0 0 0
920 0 1 25.696261781889305 2.855202718164757 25.696261781889305 0 0 0
926 0 1 25.69784221406526 5.710483338040821 14.276681876452322 0 0 0
927 0 1 25.69789122043573 5.710180977109324 17.13237621705839 0 0 0
928 0 1 25.698007653885803 5.709380547292293 19.988427452707707 0 0 0
929 0 1 25.698067384634662 5.709708323640509 22.84325474778631 0 0 0
930 0 1 25.69773154378576 5.710840155228858 25.69773154378576 0 0 0
936 0 1 25.69784698510292 8.565721366357963 14.27671323299582 0 0 0
937 0 1 25.697871531138382 8.565480984177736 17.132327015822263 0 0 0
938 0 1 25.69789122043573 8.565431782941609 19.987627022890678 0 0 0
939 0 1 25.69787983933859 8.565727617208658 22.84267105684704 0 0 0
940 0 1 25.697828368573152 8.566007208230582 25.697828368573152 0 0 0
946 0 1 25.697845263899875 11.421136371279514 14.276671628720486 0 0 0
947 0 1 25.697846985102924 11.42109476700418 17.13208663364204 0 0 0
948 0 1 25.697842214065258 11.42112612354768 19.98732466195918 0 0 0
949 0 1 25.697828694335488 11.421209901795848 22.842537440351226 0 0 0
950 0 1 25.697812462440034 11.421269928813565 25.697812462440034 0 0 0
1006 0 1 1.427600956626962 1.4276009566269623 15.704266044102138 0 0 0
1007 0 1 1.4274726970724216 1.4274726970724219 18.55974207078232 0 0 0
1008 0 1 1.4267870728216931 1.4267870728216925 21.416080341328918 0 0 0
1009 0 1 1.4118497435924344 1.4118497435924349 24.285958256407568 0 0 0
1010 0 1 1.4211038082982197 1.4211038082982195 27.125464 0 0 0
1016 0 1 1.4275562558470454 4.282788585056876 15.704428880886223 0 0 0
1017 0 1 1.427351896151001 4.282324439307394 18.560275147630204 0 0 0
1018 0 1 1.4269481937836332 4.280851734481017 21.416956265518984 0 0 0
1019 0 1 1.4267870728216936 4.281727658671084 24.27102092717831 0 0 0
1020 0 1 1.42684229054713 4.282051524762176 27.125464 0 0 0
1026 0 1 1.4275485404020423 7.137964804617705 15.704541765081743 0 0 0
1027 0 1 1.4274307615004973 7.137518206092476 18.56028979390753 0 0 0
1028 0 1 1.4273518961509997 7.137532852369797 21.415483560692607 0 0 0
1029 0 1 1.427472697072422 7.138065929217681 24.27033530292758 0 0 0
1030 0 1 1.4275218101217133 7.138185863000071 27.125464 0 0 0
1036 0 1 1.4275682207971765 9.993337009282904 15.704470990717098 0 0 0
1037 0 1 1.427548540402043 9.99326623491826 18.559843195382296 0 0 0
1038 0 1 1.4275562558470454 9.99337911911378 21.415019414943124 0 0 0
1039 0 1 1.427600956626962 9.993541955897864 24.27020704337304 0 0 0
1040 0 1 1.4276261705427653 9.993592352300489 27.125464 0 0 0
1046 0 1 1.427582736254434 12.848904000000001 15.70438064925893 0 0 0
1047 0 1 1.4275878929057368 12.848904 18.55969117840276 0 0 0
1048 0 1 1.4276064596584541 12.848904000000001 21.414917380153014 0 0 0
1049 0 1 1.427635315105686 12.848904 24.270172684894316 0 0 0
1050 0 1 1.4276512741364003 12.848904000000001 27.125464 0 0 0
1106 0 1 4.282788585056878 1.4275562558470454 15.704428880886223 0 0 0
1107 0 1 4.282324439307395 1.4273518961510006 18.560275147630204 0 0 0
1108 0 1 4.280851734481017 1.4269481937836326 21.416956265518984 0 0 0
1109 0 1 4.281727658671084 1.4267870728216943 24.27102092717831 0 0 0
1110 0 1 4.282051524762177 1.42684229054713 27.125464 0 0 0
1116 0 1 4.2827344093344575 4.2827344093344575 15.704499533260794 0 0 0
1117 0 1 4.282202050998172 4.282202050998173 18.56045465335297 0 0 0
1118 0 1 4.28004438278041 4.28004438278041 21.41776361721959 0 0 0
1119 0 1 4.280851734481017 4.280851734481017 24.270859806216368 0 0 0
1120 0 1 4.280864985662146 4.280864985662146 27.125464 0 0 0
1126 0 1 4.282736643587795 7.1379422928123955 15.704555189936645 0 0 0
1127 0 1 4.282480816771867 7.137503964373046 18.560304035626956 0 0 0
1128 0 1 4.282202050998173 7.137353346647033 21.41560594900183 0 0 0
1129 0 1 4.282324439307395 7.137532852369796 24.270456103849 0 0 0
1130 0 1 4.282374466660195 7.137587046027119 27.125464 0 0 0
1136 0 1 4.282790587680908 9.99333672776502 15.704471272234981 0 0 0
1137 0 1 4.282736643587795 9.993252810063357 18.559865707187605 0 0 0
1138 0 1 4.2827344093344575 9.993308466739206 21.415073590665546 0 0 0
1139 0 1 4.282788585056877 9.99337911911378 24.270251744152954 0 0 0
1140 0 1 4.282816348048161 9.993405296821505 27.125464 0 0 0
1146 0 1 4.282823903958409 12.848904 15.704385683923656 0 0 0
1147 0 1 4.2828220883718275 12.848904000000001 18.559718216814233 0 0 0
1148 0 1 4.282848039143795 12.848904 21.414959960856205 0 0 0
1149 0 1 4.282890619846988 12.848904000000001 24.270201540341546 0 0 0
1150 0 1 4.282910873883707 12.848904 27.125464 0 0 0
1206 0 1 7.137964804617704 1.4275485404020423 15.704541765081743 0 0 0
1207 0 1 7.137518206092476 1.427430761500496 18.560289793907526 0 0 0
1208 0 1 7.137532852369797 1.427351896151 21.415483560692607 0 0 0
1209 0 1 7.138065929217681 1.4274726970724223 24.27033530292758 0 0 0
1210 0 1 7.138185863000071 1.427521810121713 27.125464 0 0 0
1216 0 1 7.1379422928123955 4.282736643587796 15.704555189936645 0 0 0
1217 0 1 7.137503964373045 4.282480816771867 18.560304035626956 0 0 0
1218 0 1 7.137353346647034 4.282202050998173 21.41560594900183 0 0 0
1219 0 1 7.137532852369797 4.282324439307394 24.270456103849003 0 0 0
1220 0 1 7.137587046027119 4.282374466660194 27.125464 0 0 0
1226 0 1 7.137939862350664 7.137939862350663 15.704557540227547 0 0 0
1227 0 1 7.137527731514222 7.137527731514223 18.56028026848578 0 0 0
1228 0 1 7.137503964373045 7.137503964373045 21.415327183228136 0 0 0
1229 0 1 7.137518206092476 7.137518206092476 24.270377238499506 0 0 0
1230 0 1 7.13752755002545 7.13752755002545 27.125464 0 0 0
1236 0 1 7.138037070824846 9.993346506656222 15.70446149334378 0 0 0
1237 0 1 7.137939862350664 9.993250459772456 18.559868137649335 0 0 0
1238 0 1 7.137942292812397 9.993252810063357 21.415071356412206 0 0 0
1239 0 1 7.137964804617704 9.99326623491826 24.27025945959796 0 0 0
1240 0 1 7.137975476746098 9.993271835386981 27.125464 0 0 0
1246 0 1 7.138090063653536 12.848904000000001 15.704386223694234 0 0 0
1247 0 1 7.138071193683003 12.848904 18.559736806316998 0 0 0
1248 0 1 7.1380897831857695 12.848904 21.414985911628175 0 0 0
1249 0 1 7.138116821597243 12.848904 24.270220107094264 0 0 0
1250 0 1 7.1381285410484745 12.848904 27.125464 0 0 0
1306 0 1 9.993337009282904 1.427568220797176 15.704470990717098 0 0 0
1307 0 1 9.99326623491826 1.4275485404020423 18.559843195382296 0 0 0
1308 0 1 9.99337911911378 1.4275562558470454 21.415019414943124 0 0 0
1309 0 1 9.993541955897863 1.4276009566269618 24.27020704337304 0 0 0
1310 0 1 9.993592352300489 1.4276261705427646 27.125464 0 0 0
1316 0 1 9.99333672776502 4.282790587680909 15.704471272234981 0 0 0
1317 0 1 9.993252810063355 4.282736643587795 18.559865707187605 0 0 0
1318 0 1 9.993308466739206 4.2827344093344575 21.415073590665543 0 0 0
1319 0 1 9.99337911911378 4.282788585056877 24.270251744152954 0 0 0
1320 0 1 9.993405296821507 4.282816348048161 27.125464 0 0 0
1326 0 1 9.993346506656222 7.138037070824845 15.70446149334378 0 0 0
1327 0 1 9.993250459772456 7.137939862350665 18.55986813764934 0 0 0
1328 0 1 9.993252810063357 7.137942292812396 21.415071356412206 0 0 0
1329 0 1 9.99326623491826 7.137964804617705 24.27025945959796 0 0 0
1330 0 1 9.993271835386981 7.137975476746097 27.125464 0 0 0
1336 0 1 9.993383226711726 9.993383226711726 15.704424773288272 0 0 0
1337 0 1 9.99334650665622 9.993346506656222 18.559770929175155 0 0 0
1338 0 1 9.99333672776502 9.99333672776502 21.41501741231909 0 0 0
1339 0 1 9.993337009282905 9.993337009282904 24.270239779202825 0 0 0
1340 0 1 9.993337837608166 9.993337837608168 27.125464 0 0 0
1346 0 1 9.993433920475866 12.848904 15.704374079524136 0 0 0
1347 0 1 9.993421776305768 12.848904000000001 18.559717936346466 0 0 0
1348 0 1 9.993422316076344 12.848904 21.414984096041593 0 0 0
1349 0 1 9.993427350741072 12.848904000000001 24.27022526374557 0 0 0
1350 0 1 9.993429770755883 12.848904 27.125464 0 0 0
1406 0 1 12.848904000000001 1.427582736254433 15.70438064925893 0 0 0
1407 0 1 12.848904000000001 1.4275878929057366 18.55969117840276 0 0 0
1408 0 1 12.848904 1.4276064596584535 21.414917380153014 0 0 0
1409 0 1 12.848904000000001 1.4276353151056853 24.270172684894316 0 0 0
1410 0 1 12.848904 1.4276512741364007 27.125464 0 0 0
1416 0 1 12.848904000000001 4.282823903958411 15.70438568392366 0 0 0
1417 0 1 12.848904000000001 4.282822088371826 18.559718216814233 0 0 0
1418 0 1 12.848904000000001 4.282848039143794 21.414959960856205 0 0 0
1419 0 1 12.848904000000001 4.282890619846988 24.270201540341546 0 0 0
1420 0 1 12.848904000000001 4.282910873883707 27.125464 0 0 0
1426 0 1 12.848904 7.138090063653534 15.704386223694234 0 0 0
1427 0 1 12.848904000000001 7.138071193683004 18.559736806316998 0 0 0
1428 0 1 12.848904000000001 7.1380897831857695 21.414985911628175 0 0 0
1429 0 1 12.848904000000001 7.1381168215972455 24.270220107094264 0 0 0
1430 0 1 12.848904000000001 7.138128541048473 27.125464 0 0 0
1436 0 1 12.848904 9.993433920475866 15.704374079524136 0 0 0
1437 0 1 12.848904000000001 9.993421776305768 18.559717936346466 0 0 0
1438 0 1 12.848904000000001 9.993422316076346 21.41498409604159 0 0 0
1439 0 1 12.848904000000001 9.99342735074107 24.27022526374557 0 0 0
1440 0 1 12.848904000000001 9.993429770755883 27.125464 0 0 0
1446 0 1 12.848904000000001 12.848904 15.704353509521733 0 0 0
1447 0 1 12.848904 12.848904000000001 18.559702150868656 0 0 0
1448 0 1 12.848904000000001 12.848904 21.414978134006347 0 0 0
1449 0 1 12.848904000000001 12.848904000000001 24.270224627423296 0 0 0
1450 0 1 12.848904000000001 12.848904000000001 27.125464 0 0 0
1506 0 1 15.704470990717098 1.4275682207971756 15.704470990717098 0 0 0
1507 0 1 15.704541765081743 1.427548540402043 18.559843195382296 0 0 0
1508 0 1 15.704428880886223 1.427556255847044 21.415019414943124 0 0 0
1509 0 1 15.70426604410214 1.4276009566269634 24.270207043373038 0 0 0
1510 0 1 15.704215647699515 1.4276261705427649 27.125464 0 0 0
1516 0 1 15.704471272234983 4.282790587680908 15.704471272234981 0 0 0
1517 0 1 15.704555189936645 4.282736643587794 18.559865707187605 0 0 0
1518 0 1 15.704499533260798 4.282734409334458 21.415073590665543 0 0 0
1519 0 1 15.704428880886223 4.282788585056875 24.270251744152958 0 0 0
1520 0 1 15.704402703178493 4.282816348048162 27.125464 0 0 0
1526 0 1 15.70446149334378 7.138037070824844 15.70446149334378 0 0 0
1527 0 1 15.704557540227544 7.137939862350665 18.559868137649335 0 0 0
1528 0 1 15.704555189936645 7.1379422928123955 21.415071356412206 0 0 0
1529 0 1 15.704541765081743 7.137964804617706 24.27025945959796 0 0 0
1530 0 1 15.70453616461302 7.137975476746097 27.125464 0 0 0
1536 0 1 15.704424773288276 9.993383226711728 15.704424773288276 0 0 0
1537 0 1 15.70446149334378 9.993346506656222 18.559770929175155 0 0 0
1538 0 1 15.704471272234981 9.993336727765021 21.41501741231909 0 0 0
1539 0 1 15.704470990717098 9.993337009282904 24.270239779202825 0 0 0
1540 0 1 15.704470162391836 9.993337837608168 27.125464 0 0 0
1546 0 1 15.704374079524136 12.848903999999997 15.704374079524136 0 0 0
1547 0 1 15.704386223694234 12.848904000000001 18.559717936346463 0 0 0
1548 0 1 15.704385683923656 12.848904 21.414984096041593 0 0 0
1549 0 1 15.70438064925893 12.848904000000001 24.27022526374557 0 0 0
1550 0 1 15.704378229244117 12.848904 27.125464 0 0 0
1606 0 1 18.559843195382296 1.42754854040204 15.704541765081743 0 0 0
1607 0 1 18.560289793907526 1.4274307615004962 18.560289793907526 0 0 0
1608 0 1 18.560275147630204 1.4273518961509981 21.415483560692607 0 0 0
1609 0 1 18.55974207078232 1.4274726970724223 24.270335302927577 0 0 0
1610 0 1 18.55962213699993 1.4275218101217115 27.125464 0 0 0
1616 0 1 18.559865707187605 4.282736643587796 15.704555189936645 0 0 0
1617 0 1 18.560304035626956 4.282480816771866 18.560304035626956 0 0 0
1618 0 1 18.56045465335297 4.282202050998174 21.415605949001826 0 0 0
1619 0 1 18.560275147630204 4.282324439307393 24.270456103849003 0 0 0
1620 0 1 18.560220953972884 4.282374466660195 27.125464 0 0 0
1626 0 1 18.559868137649335 7.137939862350663 15.704557540227547 0 0 0
1627 0 1 18.560280268485776 7.137527731514223 18.56028026848578 0 0 0
1628 0 1 18.560304035626956 7.137503964373044 21.415327183228133 0 0 0
1629 0 1 18.560289793907526 7.1375182060924764 24.270377238499506 0 0 0
1630 0 1 18.560280449974552 7.1375275500254505 27.125464 0 0 0
1636 0 1 18.559770929175155 9.99334650665622 15.70446149334378 0 0 0
1637 0 1 18.55986813764934 9.993250459772455 18.55986813764934 0 0 0
1638 0 1 18.559865707187605 9.993252810063357 21.415071356412202 0 0 0
1639 0 1 18.559843195382296 9.993266234918257 24.27025945959796 0 0 0
1640 0 1 18.559832523253903 9.993271835386981 27.125464 0 0 0
1646 0 1 18.559717936346466 12.848904 15.70438622369423 0 0 0
1647 0 1 18.559736806316998 12.848904000000001 18.559736806316998 0 0 0
1648 0 1 18.559718216814233 12.848904 21.414985911628172 0 0 0
1649 0 1 18.55969117840276 12.848904 24.270220107094264 0 0 0
1650 0 1 18.55967945895153 12.848904 27.125464 0 0 0
1706 0 1 21.415019414943124 1.4275562558470443 15.704428880886223 0 0 0
1707 0 1 21.415483560692607 1.427351896151 18.560275147630204 0 0 0
1708 0 1 21.416956265518987 1.4269481937836324 21.416956265518984 0 0 0
1709 0 1 21.416080341328914 1.4267870728216947 24.271020927178306 0 0 0
1710 0 1 21.415756475237824 1.4268422905471303 27.125464 0 0 0
1716 0 1 21.415073590665546 4.282734409334458 15.704499533260798 0 0 0
1717 0 1 21.41560594900183 4.282202050998173 18.560454653352966 0 0 0
1718 0 1 21.41776361721959 4.28004438278041 21.41776361721959 0 0 0
1719 0 1 21.416956265518984 4.280851734481016 24.270859806216368 0 0 0
1720 0 1 21.416943014337857 4.280864985662146 27.125464 0 0 0
1726 0 1 21.415071356412206 7.137942292812395 15.704555189936649 0 0 0
1727 0 1 21.415327183228136 7.137503964373045 18.560304035626952 0 0 0
1728 0 1 21.41560594900183 7.137353346647033 21.41560594900183 0 0 0
1729 0 1 21.415483560692607 7.137532852369797 24.270456103849 0 0 0
1730 0 1 21.415433533339808 7.137587046027117 27.125464 0 0 0
1736 0 1 21.415017412319095 9.993336727765021 15.704471272234983 0 0 0
1737 0 1 21.415071356412206 9.993252810063357 18.559865707187605 0 0 0
1738 0 1 21.415073590665546 9.993308466739206 21.415073590665543 0 0 0
1739 0 1 21.415019414943124 9.99337911911378 24.270251744152954 0 0 0
1740 0 1 21.41499165195184 9.993405296821507 27.125464 0 0 0
1746 0 1 21.41498409604159 12.848904 15.704385683923656 0 0 0
1747 0 1 21.414985911628172 12.848904 18.55971821681423 0 0 0
1748 0 1 21.41495996085621 12.848904000000003 21.414959960856205 0 0 0
1749 0 1 21.41491738015301 12.848904000000001 24.270201540341546 0 0 0
1750 0 1 21.414897126116294 12.848904000000001 27.125464 0 0 0
1806 0 1 24.270207043373038 1.4276009566269623 15.704266044102138 0 0 0
1807 0 1 24.27033530292758 1.4274726970724232 18.55974207078232 0 0 0
1808 0 1 24.271020927178306 1.4267870728216931 21.416080341328918 0 0 0
1809 0 1 24.285958256407568 1.4118497435924344 24.285958256407564 0 0 0
1810 0 1 24.276704191701782 1.4211038082982184 27.125464 0 0 0
1816 0 1 24.270251744152958 4.282788585056876 15.70442888088622 0 0 0
1817 0 1 24.270456103849003 4.282324439307393 18.560275147630204 0 0 0
1818 0 1 24.270859806216368 4.280851734481017 21.416956265518984 0 0 0
60 0 1 28.553115537559968 14.276538071186437 25.697812462440034 -1 0 0
960 0 1 25.697812462440034 14.276538071186435 25.697812462440034 0 0 0
31 0 1 28.55309963142685 8.566007208230582 28.55309963142685 -1 0 -1
951 0 1 25.697812462440034 14.276538071186435 28.553115537559968 0 0 -1
51 0 1 28.553115537559968 14.276538071186435 28.553115537559968 -1 0 -1
41 0 1 28.553115537559968 11.421269928813565 28.553115537559968 -1 0 -1
111 0 1 2.851669640802764 2.851669640802764 28.552698565073104 0 0 -1
121 0 1 2.854553252213689 5.70970832364051 28.552860615365343 0 0 -1
131 0 1 2.855136943152963 8.565727617208658 28.55304816066141 0 0 -1
141 0 1 2.855270559648779 11.421209901795848 28.55309930566451 0 0 -1
211 0 1 5.70970832364051 2.854553252213689 28.552860615365343 0 0 -1
221 0 1 5.7093805472922945 5.709380547292294 28.552920346114202 0 0 -1
231 0 1 5.7101809771093235 8.565431782941609 28.55303677956427 0 0 -1
241 0 1 5.710483338040822 11.421126123547678 28.55308578593474 0 0 -1
311 0 1 8.565727617208658 2.855136943152963 28.553048160661415 0 0 -1
321 0 1 8.56543178294161 5.710180977109324 28.553036779564273 0 0 -1
331 0 1 8.565480984177736 8.565480984177736 28.55305646886162 0 0 -1
341 0 1 8.565721366357963 11.421094767004178 28.553081014897078 0 0 -1
411 0 1 11.421209901795848 2.855270559648778 28.553099305664514 0 0 -1
421 0 1 11.421126123547678 5.710483338040822 28.55308578593474 0 0 -1
431 0 1 11.42109476700418 8.565721366357963 28.55308101489708 0 0 -1
441 0 1 11.421136371279514 11.421136371279514 28.553082736100123 0 0 -1
511 0 1 14.276598098204152 2.855270559648779 28.553099305664514 0 0 -1
521 0 1 14.276681876452322 5.710483338040821 28.55308578593474 0 0 -1
531 0 1 14.27671323299582 8.565721366357963 28.55308101489708 0 0 -1
541 0 1 14.276671628720486 11.421136371279516 28.553082736100123 0 0 -1
611 0 1 17.132080382791344 2.8551369431529623 28.553048160661415 0 0 -1
621 0 1 17.132376217058393 5.710180977109324 28.55303677956427 0 0 -1
631 0 1 17.132327015822266 8.565480984177738 28.55305646886162 0 0 -1
641 0 1 17.13208663364204 11.42109476700418 28.553081014897078 0 0 -1
711 0 1 19.988099676359493 2.85455325221369 28.552860615365343 0 0 -1
721 0 1 19.988427452707707 5.709380547292293 28.5529203461142 0 0 -1
731 0 1 19.987627022890678 8.565431782941609 28.553036779564273 0 0 -1
741 0 1 19.98732466195918 11.42112612354768 28.55308578593474 0 0 -1
811 0 1 22.846138359197237 2.851669640802764 28.552698565073104 0 0 -1
821 0 1 22.843254747786315 5.70970832364051 28.552860615365343 0 0 -1
831 0 1 22.84267105684704 8.565727617208658 28.55304816066141 0 0 -1
841 0 1 22.842537440351226 11.421209901795848 28.553099305664514 0 0 -1
931 0 1 25.697828368573152 8.566007208230582 28.55309963142685 0 0 -1
941 0 1 25.697812462440034 11.421269928813565 28.553115537559968 0 0 -1
1995 0 1 27.125464 27.125464 12.848904000000003 0 0 0
52 0 1 28.553099305664514 14.276598098204152 2.855270559648778 -1 0 0
53 0 1 28.55308578593474 14.276681876452322 5.710483338040822 -1 0 0
54 0 1 28.55308101489708 14.27671323299582 8.565721366357963 -1 0 0
55 0 1 28.553082736100123 14.276671628720486 11.421136371279514 -1 0 0
905 0 1 25.697812462440037 28.553115537559968 11.421269928813565 0 -1 0
62 0 1 28.55304816066141 17.132080382791344 2.855136943152962 -1 0 0
63 0 1 28.55303677956427 17.132376217058393 5.7101809771093235 -1 0 0
64 0 1 28.55305646886162 17.132327015822263 8.565480984177736 -1 0 0
65 0 1 28.55308101489708 17.13208663364204 11.42109476700418 -1 0 0
71 0 1 7.64562142429464e-05 19.986967844771144 7.645621424204496e-05 0 0 0
72 0 1 28.552860615365343 19.988099676359493 2.8545532522136896 -1 0 0
73 0 1 28.5529203461142 19.988427452707707 5.709380547292294 -1 0 0
74 0 1 28.55303677956427 19.987627022890678 8.56543178294161 -1 0 0
75 0 1 28.55308578593474 19.98732466195918 11.421126123547678 -1 0 0
81 0 1 0.0015462181106965793 22.842605281835244 0.0015462181106959034 0 0 0
82 0 1 28.552698565073104 22.846138359197237 2.8516696408027635 -1 0 0
83 0 1 28.552860615365343 22.84325474778631 5.709708323640511 -1 0 0
84 0 1 28.55304816066141 22.84267105684704 8.565727617208658 -1 0 0
85 0 1 28.55309930566451 22.842537440351222 11.42120990179585 -1 0 0
904 0 1 25.697828368573152 28.553099631426853 8.566007208230584 0 -1 0
92 0 1 0.0015462181106958022 25.696261781889305 2.8552027181647572 0 0 0
93 0 1 7.645621424146559e-05 25.69773154378576 5.7108401552288575 0 0 0
94 0 1 28.55309963142685 25.697828368573152 8.566007208230582 -1 0 0
95 0 1 28.553115537559968 25.697812462440034 11.421269928813565 -1 0 0
805 0 1 22.842537440351222 28.55309930566451 11.421209901795848 0 -1 0
152 0 1 2.8552326149343936 14.27663334209067 2.8552326149343945 0 0 0
153 0 1 2.8551968785377944 14.276696258851317 5.710451419083655 0 0 0
154 0 1 2.8551911808532187 14.27671449333825 8.565711012843469 0 0 0
155 0 1 2.855201474377785 14.276671861275485 11.421136138724515 0 0 0
804 0 1 22.84267105684704 28.55304816066141 8.565727617208658 0 -1 0
162 0 1 2.8550631456317537 17.13220231293524 2.8550631456317532 0 0 0
163 0 1 2.8550344970320944 17.132413534728226 5.710142518247605 0 0 0
164 0 1 2.8551111052725413 17.1323320258745 8.565475974125498 0 0 0
165 0 1 2.855191180853219 17.132096987156533 11.421093506661752 0 0 0
803 0 1 22.84325474778631 28.552860615365343 5.70970832364051 0 -1 0
172 0 1 2.854303748172986 19.988437557459477 2.854303748172987 0 0 0
173 0 1 2.854666072852522 19.988461802390407 5.709346197609593 0 0 0
174 0 1 2.855034497032094 19.987665481752398 8.565394465271778 0 0 0
175 0 1 2.855196878537794 19.987356580916344 11.421111741148682 0 0 0
802 0 1 22.846138359197237 28.552698565073104 2.851669640802764 0 -1 0
182 0 1 2.848824080109074 22.848983919890927 2.8488240801090736 0 0 0
183 0 1 2.854303748172986 22.843504251827014 5.709370442540526 0 0 0
184 0 1 2.8550631456317532 22.842744854368245 8.565605687064759 0 0 0
185 0 1 2.8552326149343954 22.842575385065608 11.421174657909331 0 0 0
191 0 1 2.8552027181647577 25.696261781889305 0.0015462181106967571 0 0 0
192 0 1 2.851669640802764 25.698229434926898 2.8516696408027644 0 0 0
193 0 1 2.8545532522136887 25.69806738463466 5.709708323640511 0 0 0
194 0 1 2.8551369431529627 25.697879839338587 8.565727617208658 0 0 0
195 0 1 2.8552705596487784 25.697828694335488 11.421209901795848 0 0 0
705 0 1 19.987324661959182 28.55308578593474 11.421126123547678 0 -1 0
252 0 1 5.710451419083655 14.276696258851317 2.8551968785377944 0 0 0
253 0 1 5.710415562241092 14.276718040329142 5.710415562241091 0 0 0
254 0 1 5.710424182822025 14.276714067502125 8.565700121496874 0 0 0
255 0 1 5.710453089696351 14.276670525722153 11.421137474277849 0 0 0
704 0 1 19.987627022890678 28.55303677956427 8.56543178294161 0 -1 0
262 0 1 5.710142518247605 17.132413534728226 2.8550344970320944 0 0 0
263 0 1 5.7101046696520745 17.132474118757212 5.7101046696520745 0 0 0
264 0 1 5.710281247390569 17.132328218804105 8.565479781195895 0 0 0
265 0 1 5.710424182822023 17.132107878503128 11.421093932497877 0 0 0
703 0 1 19.988427452707707 28.5529203461142 5.7093805472922945 0 -1 0
272 0 1 5.709346197609593 19.988461802390407 2.8546660728525235 0 0 0
273 0 1 5.709186045622852 19.988621954377148 5.70918604562285 0 0 0
274 0 1 5.710104669652075 19.987703330347927 8.565333881242791 0 0 0
275 0 1 5.710415562241092 19.98739243775891 11.42108995967086 0 0 0
702 0 1 19.988099676359493 28.552860615365343 2.854553252213689 0 -1 0
282 0 1 5.709370442540524 22.843504251827017 2.854303748172986 0 0 0
283 0 1 5.709346197609594 22.843141927147478 5.709346197609593 0 0 0
284 0 1 5.710142518247606 22.84277350296791 8.565394465271776 0 0 0
285 0 1 5.710451419083655 22.84261112146221 11.421111741148682 0 0 0
291 0 1 5.7108401552288575 25.69773154378576 7.6456214242722e-05 0 0 0
292 0 1 5.70970832364051 25.69806738463466 2.8545532522136887 0 0 0
293 0 1 5.709380547292294 25.698007653885803 5.7093805472922945 0 0 0
294 0 1 5.7101809771093235 25.69789122043573 8.56543178294161 0 0 0
295 0 1 5.710483338040821 25.697842214065258 11.421126123547678 0 0 0
605 0 1 17.13208663364204 28.553081014897078 11.421094767004178 0 -1 0
352 0 1 8.565711012843469 14.27671449333825 2.855191180853219 0 0 0
353 0 1 8.565700121496873 14.276714067502125 5.710424182822023 0 0 0
354 0 1 8.565707907589768 14.276702875647771 8.56570790758977 0 0 0
355 0 1 8.565753819984199 14.276663806710783 11.421144193289217 0 0 0
604 0 1 17.132327015822266 28.55305646886162 8.565480984177736 0 -1 0
362 0 1 8.565475974125501 17.1323320258745 2.855111105272541 0 0 0
363 0 1 8.565479781195897 17.132328218804105 5.7102812473905695 0 0 0
364 0 1 8.56553376618007 17.13227423381993 8.565533766180069 0 0 0
365 0 1 8.565707907589772 17.13210009241023 11.42110512435223 0 0 0
603 0 1 17.132376217058393 28.55303677956427 5.710180977109323 0 -1 0
372 0 1 8.565394465271778 19.987665481752394 2.8550344970320953 0 0 0
373 0 1 8.56533388124279 19.987703330347927 5.710104669652074 0 0 0
374 0 1 8.565479781195897 19.987526752609433 8.565479781195897 0 0 0
375 0 1 8.565700121496873 19.987383817177978 11.421093932497875 0 0 0
602 0 1 17.132080382791344 28.55304816066141 2.855136943152963 0 -1 0
382 0 1 8.56560568706476 22.84274485436825 2.855063145631753 0 0 0
383 0 1 8.565394465271776 22.842773502967905 5.710142518247606 0 0 0
384 0 1 8.5654759741255 22.84269689472746 8.5654759741255 0 0 0
385 0 1 8.565711012843469 22.842616819146784 11.421093506661752 0 0 0
505 0 1 14.27667162872049 28.553082736100123 11.421136371279514 0 -1 0
392 0 1 8.56572761720866 25.697879839338587 2.8551369431529627 0 0 0
393 0 1 8.56543178294161 25.69789122043573 5.710180977109324 0 0 0
394 0 1 8.565480984177738 25.697871531138382 8.565480984177738 0 0 0
395 0 1 8.565721366357963 25.69784698510292 11.421094767004178 0 0 0
504 0 1 14.27671323299582 28.553081014897078 8.565721366357963 0 -1 0
452 0 1 11.421136138724515 14.276671861275485 2.8552014743777856 0 0 0
453 0 1 11.42113747427785 14.276670525722153 5.710453089696351 0 0 0
454 0 1 11.42114419328922 14.276663806710783 8.565753819984199 0 0 0
455 0 1 11.421157284397243 14.276650715602758 11.421157284397243 0 0 0
503 0 1 14.276681876452322 28.55308578593474 5.710483338040822 0 -1 0
462 0 1 11.421093506661752 17.132096987156533 2.855191180853219 0 0 0
463 0 1 11.421093932497875 17.132107878503124 5.710424182822025 0 0 0
464 0 1 11.42110512435223 17.13210009241023 8.56570790758977 0 0 0
465 0 1 11.421144193289217 17.132054180015803 11.421144193289217 0 0 0
502 0 1 14.276598098204152 28.553099305664514 2.8552705596487784 0 -1 0
472 0 1 11.421111741148682 19.987356580916344 2.8551968785377944 0 0 0
473 0 1 11.42108995967086 19.98739243775891 5.710415562241091 0 0 0
474 0 1 11.421093932497875 19.987383817177978 8.565700121496874 0 0 0
475 0 1 11.421137474277849 19.98735491030365 11.421137474277849 0 0 0
405 0 1 11.421136371279514 28.553082736100123 11.421136371279514 0 -1 0
482 0 1 11.421174657909331 22.842575385065608 2.855232614934394 0 0 0
483 0 1 11.421111741148684 22.842611121462205 5.710451419083655 0 0 0
484 0 1 11.421093506661752 22.84261681914678 8.565711012843469 0 0 0
485 0 1 11.421136138724517 22.842606525622216 11.421136138724515 0 0 0
404 0 1 11.42109476700418 28.55308101489708 8.565721366357963 0 -1 0
492 0 1 11.421209901795848 25.697828694335488 2.855270559648779 0 0 0
493 0 1 11.421126123547678 25.697842214065258 5.710483338040821 0 0 0
494 0 1 11.42109476700418 25.69784698510292 8.565721366357963 0 0 0
495 0 1 11.421136371279514 25.69784526389988 11.421136371279516 0 0 0
403 0 1 11.421126123547678 28.55308578593474 5.710483338040822 0 -1 0
552 0 1 14.276671861275485 14.276671861275485 2.8552014743777847 0 0 0
553 0 1 14.276670525722153 14.276670525722153 5.710453089696351 0 0 0
554 0 1 14.276663806710783 14.276663806710783 8.565753819984199 0 0 0
555 0 1 14.276650715602758 14.276650715602758 11.421157284397244 0 0 0
402 0 1 11.421209901795848 28.553099305664514 2.8552705596487784 0 -1 0
562 0 1 14.27671449333825 17.132096987156533 2.8551911808532187 0 0 0
563 0 1 14.276714067502128 17.132107878503128 5.710424182822025 0 0 0
564 0 1 14.276702875647771 17.13210009241023 8.56570790758977 0 0 0
565 0 1 14.276663806710783 17.132054180015803 11.421144193289217 0 0 0
305 0 1 8.565721366357963 28.55308101489708 11.42109476700418 0 -1 0
572 0 1 14.276696258851317 19.987356580916344 2.8551968785377935 0 0 0
573 0 1 14.276718040329142 19.98739243775891 5.710415562241091 0 0 0
574 0 1 14.276714067502125 19.987383817177975 8.565700121496874 0 0 0
575 0 1 14.276670525722153 19.987354910303647 11.42113747427785 0 0 0
304 0 1 8.565480984177736 28.55305646886162 8.565480984177738 0 -1 0
582 0 1 14.27663334209067 22.842575385065608 2.855232614934394 0 0 0
583 0 1 14.276696258851317 22.842611121462205 5.710451419083655 0 0 0
584 0 1 14.27671449333825 22.842616819146784 8.565711012843469 0 0 0
585 0 1 14.276671861275485 22.842606525622216 11.421136138724515 0 0 0
303 0 1 8.565431782941609 28.55303677956427 5.710180977109324 0 -1 0
592 0 1 14.276598098204152 25.697828694335488 2.8552705596487766 0 0 0
593 0 1 14.276681876452322 25.69784221406526 5.710483338040823 0 0 0
594 0 1 14.27671323299582 25.69784698510292 8.56572136635796 0 0 0
595 0 1 14.27667162872049 25.69784526389988 11.421136371279514 0 0 0
302 0 1 8.565727617208658 28.55304816066141 2.8551369431529627 0 -1 0
652 0 1 17.132096987156533 14.27671449333825 2.8551911808532187 0 0 0
653 0 1 17.132107878503128 14.276714067502125 5.710424182822023 0 0 0
654 0 1 17.132100092410234 14.276702875647771 8.56570790758977 0 0 0
655 0 1 17.132054180015803 14.276663806710783 11.421144193289217 0 0 0
205 0 1 5.710483338040821 28.55308578593474 11.42112612354768 0 -1 0
662 0 1 17.1323320258745 17.1323320258745 2.855111105272542 0 0 0
663 0 1 17.132328218804105 17.132328218804105 5.710281247390568 0 0 0
664 0 1 17.13227423381993 17.13227423381993 8.565533766180069 0 0 0
665 0 1 17.13210009241023 17.13210009241023 11.42110512435223 0 0 0
204 0 1 5.710180977109324 28.55303677956427 8.56543178294161 0 -1 0
672 0 1 17.132413534728226 19.987665481752398 2.855034497032094 0 0 0
673 0 1 17.132474118757212 19.987703330347927 5.7101046696520745 0 0 0
674 0 1 17.132328218804105 19.987526752609433 8.565479781195897 0 0 0
675 0 1 17.132107878503128 19.987383817177978 11.421093932497877 0 0 0
203 0 1 5.709380547292294 28.5529203461142 5.709380547292294 0 -1 0
682 0 1 17.13220231293524 22.84274485436825 2.855063145631754 0 0 0
683 0 1 17.132413534728222 22.84277350296791 5.710142518247605 0 0 0
684 0 1 17.1323320258745 22.84269689472746 8.5654759741255 0 0 0
685 0 1 17.132096987156533 22.84261681914678 11.42109350666175 0 0 0
202 0 1 5.709708323640511 28.552860615365343 2.854553252213689 0 -1 0
692 0 1 17.132080382791344 25.69787983933859 2.8551369431529623 0 0 0
693 0 1 17.132376217058393 25.69789122043573 5.7101809771093235 0 0 0
694 0 1 17.132327015822266 25.697871531138382 8.565480984177736 0 0 0
695 0 1 17.13208663364204 25.697846985102924 11.42109476700418 0 0 0
105 0 1 2.855270559648779 28.553099305664514 11.421209901795848 0 -1 0
752 0 1 19.987356580916348 14.276696258851317 2.855196878537794 0 0 0
753 0 1 19.98739243775891 14.276718040329142 5.710415562241092 0 0 0
754 0 1 19.987383817177975 14.276714067502121 8.565700121496874 0 0 0
755 0 1 19.98735491030365 14.276670525722153 11.42113747427785 0 0 0
104 0 1 2.8551369431529627 28.55304816066141 8.565727617208658 0 -1 0
762 0 1 19.987665481752394 17.132413534728226 2.8550344970320953 0 0 0
763 0 1 19.987703330347927 17.132474118757212 5.7101046696520745 0 0 0
764 0 1 19.987526752609433 17.132328218804105 8.565479781195897 0 0 0
765 0 1 19.987383817177978 17.132107878503128 11.421093932497877 0 0 0
103 0 1 2.8545532522136896 28.552860615365343 5.709708323640512 0 -1 0
772 0 1 19.988461802390407 19.988461802390407 2.8546660728525213 0 0 0
773 0 1 19.988621954377148 19.98862195437715 5.709186045622851 0 0 0
774 0 1 19.987703330347927 19.987703330347927 8.56533388124279 0 0 0
775 0 1 19.98739243775891 19.987392437758906 11.42108995967086 0 0 0
102 0 1 2.851669640802764 28.552698565073104 2.851669640802764 0 -1 0
782 0 1 19.988437557459477 22.843504251827017 2.854303748172986 0 0 0
783 0 1 19.98846180239041 22.843141927147478 5.709346197609593 0 0 0
784 0 1 19.987665481752398 22.84277350296791 8.565394465271778 0 0 0
785 0 1 19.987356580916348 22.842611121462205 11.421111741148682 0 0 0
791 0 1 19.986967844771144 25.69773154378576 7.64562142421808e-05 0 0 0
792 0 1 19.98809967635949 25.69806738463466 2.8545532522136883 0 0 0
793 0 1 19.988427452707707 25.698007653885803 5.7093805472922945 0 0 0
794 0 1 19.987627022890678 25.69789122043573 8.565431782941609 0 0 0
795 0 1 19.98732466195918 25.69784221406526 11.421126123547678 0 0 0
5 0 1 28.553115537559968 28.553115537559968 11.421269928813567 -1 -1 0
852 0 1 22.842575385065608 14.27663334209067 2.855232614934395 0 0 0
853 0 1 22.84261112146221 14.276696258851317 5.710451419083656 0 0 0
854 0 1 22.842616819146784 14.276714493338247 8.565711012843467 0 0 0
855 0 1 22.842606525622216 14.276671861275485 11.421136138724515 0 0 0
4 0 1 28.55309963142685 28.55309963142685 8.566007208230582 -1 -1 0
862 0 1 22.84274485436825 17.13220231293524 2.855063145631754 0 0 0
863 0 1 22.842773502967905 17.132413534728222 5.710142518247606 0 0 0
864 0 1 22.84269689472746 17.1323320258745 8.5654759741255 0 0 0
865 0 1 22.84261681914678 17.132096987156533 11.421093506661752 0 0 0
1993 0 1 27.125464 27.125464 7.138589878112682 0 0 0
872 0 1 22.843504251827014 19.988437557459477 2.854303748172985 0 0 0
873 0 1 22.843141927147478 19.988461802390407 5.709346197609593 0 0 0
874 0 1 22.84277350296791 19.987665481752398 8.565394465271778 0 0 0
875 0 1 22.84261112146221 19.987356580916348 11.421111741148682 0 0 0
1992 0 1 27.125464 27.125464 4.285388356042049 0 0 0
882 0 1 22.848983919890927 22.848983919890927 2.8488240801090745 0 0 0
883 0 1 22.843504251827014 22.843504251827014 5.709370442540525 0 0 0
884 0 1 22.84274485436825 22.842744854368245 8.56560568706476 0 0 0
885 0 1 22.842575385065608 22.842575385065604 11.421174657909331 0 0 0
891 0 1 22.842605281835244 25.696261781889305 0.0015462181106962287 0 0 0
892 0 1 22.846138359197237 25.698229434926898 2.8516696408027635 0 0 0
893 0 1 22.84325474778631 25.698067384634662 5.70970832364051 0 0 0
894 0 1 22.842671056847042 25.69787983933859 8.565727617208658 0 0 0
895 0 1 22.842537440351222 25.69782869433549 11.42120990179585 0 0 0
1994 0 1 27.125464 27.125464 9.99367650558641 0 0 0
952 0 1 25.697828694335488 14.276598098204152 2.855270559648778 0 0 0
953 0 1 25.69784221406526 14.276681876452322 5.710483338040821 0 0 0
954 0 1 25.69784698510292 14.27671323299582 8.56572136635796 0 0 0
955 0 1 25.697845263899875 14.276671628720486 11.421136371279514 0 0 0
1991 0 1 27.125464 27.125464 1.4666024618451827 0 0 0
962 0 1 25.697879839338587 17.132080382791344 2.855136943152962 0 0 0
963 0 1 25.69789122043573 17.132376217058393 5.7101809771093235 0 0 0
964 0 1 25.69787153113838 17.132327015822266 8.565480984177736 0 0 0
965 0 1 25.69784698510292 17.13208663364204 11.42109476700418 0 0 0
971 0 1 25.69773154378576 19.986967844771144 7.645621424088209e-05 0 0 0
972 0 1 25.69806738463466 19.98809967635949 2.854553252213689 0 0 0
973 0 1 25.698007653885803 19.988427452707707 5.709380547292293 0 0 0
974 0 1 25.69789122043573 19.987627022890678 8.565431782941609 0 0 0
975 0 1 25.69784221406526 19.98732466195918 11.421126123547678 0 0 0
981 0 1 25.696261781889305 22.842605281835244 0.0015462181106973454 0 0 0
982 0 1 25.698229434926898 22.846138359197237 2.8516696408027644 0 0 0
983 0 1 25.698067384634662 22.84325474778631 5.70970832364051 0 0 0
984 0 1 25.697879839338587 22.84267105684704 8.565727617208658 0 0 0
985 0 1 25.69782869433549 22.842537440351222 11.421209901795848 0 0 0
1985 0 1 27.125464 24.2701567258636 12.848904000000001 0 0 0
992 0 1 25.696261781889305 25.6962617818893 2.8552027181647577 0 0 0
993 0 1 25.69773154378576 25.69773154378576 5.7108401552288575 0 0 0
994 0 1 25.697828368573152 25.697828368573152 8.566007208230584 0 0 0
995 0 1 25.697812462440034 25.697812462440034 11.421269928813565 0 0 0
1051 0 1 1.4276009566269614 15.704266044102138 1.4276009566269623 0 0 0
1052 0 1 1.4275562558470456 15.70442888088622 4.282788585056876 0 0 0
1053 0 1 1.4275485404020416 15.704541765081743 7.137964804617705 0 0 0
1054 0 1 1.427568220797176 15.704470990717095 9.993337009282904 0 0 0
1055 0 1 1.4275827362544333 15.70438064925893 12.848904000000001 0 0 0
1061 0 1 1.4274726970724205 18.55974207078232 1.4274726970724216 0 0 0
1062 0 1 1.4273518961510008 18.560275147630204 4.282324439307395 0 0 0
1063 0 1 1.4274307615004973 18.560289793907526 7.137518206092475 0 0 0
1064 0 1 1.4275485404020425 18.559843195382296 9.99326623491826 0 0 0
1065 0 1 1.4275878929057353 18.55969117840276 12.848904000000001 0 0 0
1071 0 1 1.4267870728216931 21.416080341328918 1.4267870728216938 0 0 0
1072 0 1 1.4269481937836326 21.416956265518984 4.280851734481017 0 0 0
1073 0 1 1.4273518961509994 21.415483560692607 7.137532852369797 0 0 0
1074 0 1 1.4275562558470454 21.415019414943124 9.99337911911378 0 0 0
1075 0 1 1.4276064596584537 21.414917380153014 12.848904000000001 0 0 0
1081 0 1 1.4118497435924346 24.285958256407568 1.4118497435924353 0 0 0
1082 0 1 1.426787072821695 24.27102092717831 4.281727658671084 0 0 0
1083 0 1 1.427472697072422 24.27033530292758 7.138065929217681 0 0 0
1084 0 1 1.427600956626962 24.27020704337304 9.993541955897863 0 0 0
1085 0 1 1.4276353151056849 24.270172684894316 12.848904000000001 0 0 0
1091 0 1 1.421103808298219 27.125464 1.4211038082982201 0 0 0
1092 0 1 1.4268422905471299 27.125464 4.282051524762176 0 0 0
1093 0 1 1.427521810121713 27.125464 7.138185863000072 0 0 0
1094 0 1 1.4276261705427649 27.125464 9.993592352300487 0 0 0
1095 0 1 1.4276512741364003 27.125464 12.848904000000001 0 0 0
1151 0 1 4.282788585056876 15.704428880886223 1.427556255847045 0 0 0
1152 0 1 4.282734409334457 15.704499533260794 4.282734409334457 0 0 0
1153 0 1 4.282736643587795 15.704555189936645 7.137942292812397 0 0 0
1154 0 1 4.282790587680908 15.704471272234981 9.99333672776502 0 0 0
1155 0 1 4.28282390395841 15.704385683923656 12.848904000000001 0 0 0
1161 0 1 4.282324439307396 18.560275147630204 1.4273518961510006 0 0 0
1162 0 1 4.282202050998173 18.560454653352966 4.282202050998173 0 0 0
1163 0 1 4.282480816771866 18.560304035626952 7.137503964373044 0 0 0
1164 0 1 4.282736643587795 18.559865707187605 9.993252810063357 0 0 0
1165 0 1 4.282822088371827 18.55971821681423 12.848904000000001 0 0 0
1171 0 1 4.2808517344810175 21.416956265518984 1.4269481937836335 0 0 0
1172 0 1 4.28004438278041 21.41776361721959 4.280044382780409 0 0 0
1173 0 1 4.282202050998173 21.41560594900183 7.137353346647033 0 0 0
1174 0 1 4.2827344093344575 21.415073590665543 9.993308466739206 0 0 0
1175 0 1 4.282848039143795 21.41495996085621 12.848904000000001 0 0 0
1181 0 1 4.281727658671084 24.27102092717831 1.4267870728216945 0 0 0
1182 0 1 4.280851734481017 24.270859806216368 4.280851734481017 0 0 0
1183 0 1 4.282324439307395 24.270456103849 7.137532852369797 0 0 0
1184 0 1 4.282788585056877 24.270251744152954 9.99337911911378 0 0 0
1185 0 1 4.282890619846988 24.270201540341546 12.848904 0 0 0
1191 0 1 4.282051524762177 27.125464 1.42684229054713 0 0 0
1192 0 1 4.280864985662146 27.125464 4.280864985662146 0 0 0
1193 0 1 4.282374466660194 27.125464 7.137587046027119 0 0 0
1194 0 1 4.282816348048161 27.125464 9.993405296821507 0 0 0
1195 0 1 4.282910873883707 27.125464 12.848904000000001 0 0 0
1251 0 1 7.137964804617704 15.704541765081743 1.4275485404020414 0 0 0
1252 0 1 7.137942292812397 15.704555189936645 4.282736643587796 0 0 0
1253 0 1 7.137939862350665 15.704557540227547 7.137939862350664 0 0 0
1254 0 1 7.138037070824846 15.70446149334378 9.99334650665622 0 0 0
1255 0 1 7.138090063653535 15.70438622369423 12.848904000000001 0 0 0
1261 0 1 7.137518206092476 18.560289793907526 1.427430761500496 0 0 0
1262 0 1 7.137503964373045 18.560304035626956 4.282480816771867 0 0 0
1263 0 1 7.137527731514222 18.56028026848578 7.137527731514222 0 0 0
1264 0 1 7.137939862350663 18.55986813764934 9.993250459772456 0 0 0
1265 0 1 7.138071193683003 18.559736806316998 12.848904000000001 0 0 0
1271 0 1 7.137532852369798 21.415483560692607 1.4273518961509997 0 0 0
1272 0 1 7.137353346647033 21.41560594900183 4.2822020509981735 0 0 0
1273 0 1 7.137503964373045 21.415327183228133 7.137503964373044 0 0 0
1274 0 1 7.137942292812396 21.415071356412206 9.993252810063357 0 0 0
1275 0 1 7.1380897831857695 21.414985911628175 12.848904000000001 0 0 0
1281 0 1 7.138065929217681 24.27033530292758 1.4274726970724223 0 0 0
1282 0 1 7.137532852369796 24.270456103849003 4.282324439307395 0 0 0
1283 0 1 7.137518206092476 24.270377238499503 7.137518206092476 0 0 0
1284 0 1 7.137964804617705 24.27025945959796 9.99326623491826 0 0 0
1285 0 1 7.138116821597243 24.270220107094264 12.848904000000001 0 0 0
1291 0 1 7.138185863000072 27.125464 1.427521810121713 0 0 0
1292 0 1 7.137587046027118 27.125464 4.282374466660195 0 0 0
1293 0 1 7.13752755002545 27.125464 7.13752755002545 0 0 0
1294 0 1 7.137975476746098 27.125464 9.993271835386981 0 0 0
1295 0 1 7.138128541048474 27.125464 12.848904000000001 0 0 0
1351 0 1 9.993337009282905 15.704470990717098 1.4275682207971765 0 0 0
1352 0 1 9.99333672776502 15.704471272234981 4.282790587680908 0 0 0
1353 0 1 9.993346506656222 15.70446149334378 7.138037070824845 0 0 0
1354 0 1 9.993383226711725 15.704424773288276 9.993383226711725 0 0 0
1355 0 1 9.993433920475866 15.704374079524136 12.848904 0 0 0
1361 0 1 9.99326623491826 18.559843195382296 1.4275485404020434 0 0 0
1362 0 1 9.993252810063357 18.559865707187605 4.2827366435877945 0 0 0
1363 0 1 9.993250459772456 18.559868137649335 7.137939862350664 0 0 0
1364 0 1 9.993346506656222 18.559770929175155 9.993346506656223 0 0 0
1365 0 1 9.99342177630577 18.559717936346466 12.848904 0 0 0
1371 0 1 9.99337911911378 21.415019414943124 1.4275562558470454 0 0 0
1372 0 1 9.993308466739206 21.415073590665543 4.282734409334457 0 0 0
1373 0 1 9.993252810063357 21.415071356412206 7.137942292812396 0 0 0
1374 0 1 9.993336727765021 21.41501741231909 9.99333672776502 0 0 0
1375 0 1 9.993422316076344 21.414984096041593 12.848904000000001 0 0 0
1381 0 1 9.993541955897863 24.270207043373038 1.427600956626963 0 0 0
1382 0 1 9.993379119113781 24.270251744152958 4.282788585056876 0 0 0
1383 0 1 9.993266234918257 24.27025945959796 7.137964804617704 0 0 0
1384 0 1 9.993337009282905 24.270239779202825 9.993337009282904 0 0 0
1385 0 1 9.993427350741072 24.270225263745566 12.848904000000001 0 0 0
1391 0 1 9.993592352300489 27.125464 1.4276261705427655 0 0 0
1392 0 1 9.993405296821507 27.125464 4.282816348048161 0 0 0
1393 0 1 9.99327183538698 27.125464 7.137975476746097 0 0 0
1394 0 1 9.993337837608166 27.125463999999997 9.993337837608168 0 0 0
1395 0 1 9.993429770755885 27.125464 12.848904 0 0 0
1451 0 1 12.848904000000001 15.70438064925893 1.427582736254433 0 0 0
1452 0 1 12.848904 15.704385683923656 4.28282390395841 0 0 0
1453 0 1 12.848904 15.70438622369423 7.138090063653534 0 0 0
1454 0 1 12.848904 15.704374079524136 9.993433920475866 0 0 0
1455 0 1 12.848904000000001 15.704353509521729 12.848904000000001 0 0 0
1461 0 1 12.848904000000001 18.55969117840276 1.4275878929057362 0 0 0
1462 0 1 12.848904000000001 18.559718216814233 4.282822088371827 0 0 0
1463 0 1 12.848904000000001 18.559736806316998 7.138071193683004 0 0 0
1464 0 1 12.848904000000001 18.559717936346466 9.993421776305768 0 0 0
1465 0 1 12.848904000000001 18.559702150868656 12.848904 0 0 0
1471 0 1 12.848904000000001 21.41491738015301 1.4276064596584537 0 0 0
1472 0 1 12.848904000000001 21.414959960856205 4.282848039143794 0 0 0
1473 0 1 12.848904000000001 21.414985911628175 7.13808978318577 0 0 0
1474 0 1 12.848904000000001 21.41498409604159 9.993422316076343 0 0 0
1475 0 1 12.848904 21.414978134006347 12.848904000000001 0 0 0
1481 0 1 12.848904000000001 24.270172684894316 1.4276353151056849 0 0 0
1482 0 1 12.848904 24.270201540341546 4.282890619846987 0 0 0
1483 0 1 12.848904000000001 24.270220107094264 7.138116821597243 0 0 0
1484 0 1 12.848904 24.270225263745566 9.993427350741069 0 0 0
1485 0 1 12.848904 24.270224627423296 12.848904000000003 0 0 0
1491 0 1 12.848904000000001 27.125464 1.4276512741363998 0 0 0
1492 0 1 12.848904000000001 27.125464 4.282910873883706 0 0 0
1493 0 1 12.848904000000001 27.125464 7.138128541048474 0 0 0
1494 0 1 12.848904000000001 27.125464 9.993429770755883 0 0 0
1495 0 1 12.848904 27.125464 12.848904000000001 0 0 0
1551 0 1 15.704470990717098 15.704470990717098 1.427568220797176 0 0 0
1552 0 1 15.704471272234983 15.704471272234983 4.282790587680908 0 0 0
1553 0 1 15.704461493343784 15.70446149334378 7.138037070824846 0 0 0
1554 0 1 15.704424773288276 15.704424773288276 9.993383226711726 0 0 0
1555 0 1 15.704374079524136 15.704374079524136 12.848904000000001 0 0 0
1561 0 1 15.704541765081743 18.559843195382296 1.4275485404020418 0 0 0
1562 0 1 15.704555189936645 18.559865707187605 4.282736643587795 0 0 0
1563 0 1 15.704557540227544 18.559868137649335 7.137939862350665 0 0 0
1564 0 1 15.70446149334378 18.559770929175155 9.993346506656222 0 0 0
1565 0 1 15.70438622369423 18.559717936346466 12.848904 0 0 0
1571 0 1 15.704428880886223 21.415019414943124 1.4275562558470454 0 0 0
1572 0 1 15.704499533260798 21.415073590665546 4.282734409334457 0 0 0
1573 0 1 15.704555189936645 21.415071356412206 7.137942292812396 0 0 0
1574 0 1 15.704471272234981 21.415017412319095 9.99333672776502 0 0 0
1575 0 1 15.704385683923656 21.414984096041593 12.848904 0 0 0
1581 0 1 15.704266044102138 24.27020704337304 1.427600956626962 0 0 0
1582 0 1 15.704428880886223 24.270251744152954 4.282788585056877 0 0 0
1583 0 1 15.704541765081743 24.27025945959796 7.137964804617704 0 0 0
1584 0 1 15.704470990717098 24.270239779202825 9.993337009282905 0 0 0
1585 0 1 15.70438064925893 24.27022526374557 12.848904000000001 0 0 0
1591 0 1 15.704215647699515 27.125464 1.427626170542765 0 0 0
1592 0 1 15.704402703178495 27.125464 4.282816348048161 0 0 0
1593 0 1 15.70453616461302 27.125464 7.137975476746096 0 0 0
1594 0 1 15.704470162391832 27.125464 9.993337837608166 0 0 0
1595 0 1 15.704378229244117 27.125464 12.848903999999997 0 0 0
1651 0 1 18.559843195382296 15.704541765081743 1.427548540402041 0 0 0
1652 0 1 18.559865707187605 15.704555189936645 4.282736643587795 0 0 0
1653 0 1 18.559868137649335 15.704557540227544 7.137939862350664 0 0 0
1654 0 1 18.559770929175155 15.70446149334378 9.993346506656222 0 0 0
1655 0 1 18.559717936346466 15.70438622369423 12.848904 0 0 0
1661 0 1 18.560289793907526 18.560289793907526 1.4274307615004969 0 0 0
1662 0 1 18.560304035626956 18.560304035626956 4.282480816771867 0 0 0
1663 0 1 18.56028026848578 18.56028026848578 7.137527731514222 0 0 0
1664 0 1 18.55986813764934 18.55986813764934 9.993250459772456 0 0 0
1665 0 1 18.559736806316998 18.559736806316998 12.848904 0 0 0
1671 0 1 18.560275147630204 21.415483560692607 1.4273518961510006 0 0 0
1672 0 1 18.560454653352966 21.41560594900183 4.282202050998172 0 0 0
1673 0 1 18.560304035626956 21.415327183228133 7.137503964373046 0 0 0
1674 0 1 18.559865707187605 21.415071356412206 9.993252810063355 0 0 0
1675 0 1 18.559718216814233 21.414985911628175 12.848904 0 0 0
1681 0 1 18.55974207078232 24.27033530292758 1.4274726970724216 0 0 0
1682 0 1 18.560275147630204 24.270456103849 4.282324439307394 0 0 0
1683 0 1 18.560289793907526 24.270377238499506 7.137518206092476 0 0 0
1684 0 1 18.5598431953823 24.27025945959796 9.99326623491826 0 0 0
1685 0 1 18.55969117840276 24.270220107094264 12.848904000000001 0 0 0
1691 0 1 18.55962213699993 27.125464 1.4275218101217129 0 0 0
1692 0 1 18.560220953972884 27.125464 4.282374466660194 0 0 0
1693 0 1 18.560280449974552 27.125464 7.1375275500254505 0 0 0
1694 0 1 18.559832523253903 27.125464 9.993271835386981 0 0 0
1695 0 1 18.55967945895153 27.125464 12.848904 0 0 0
1751 0 1 21.415019414943124 15.70442888088622 1.427556255847046 0 0 0
1752 0 1 21.415073590665546 15.704499533260794 4.282734409334457 0 0 0
1753 0 1 21.415071356412206 15.704555189936645 7.1379422928123955 0 0 0
1754 0 1 21.41501741231909 15.704471272234981 9.993336727765021 0 0 0
1755 0 1 21.414984096041593 15.704385683923656 12.848904000000001 0 0 0
1761 0 1 21.415483560692607 18.560275147630204 1.4273518961510006 0 0 0
1762 0 1 21.415605949001826 18.560454653352966 4.282202050998173 0 0 0
1763 0 1 21.415327183228133 18.560304035626956 7.137503964373045 0 0 0
1764 0 1 21.415071356412206 18.559865707187605 9.993252810063355 0 0 0
1765 0 1 21.414985911628172 18.55971821681423 12.848904000000001 0 0 0
1771 0 1 21.416956265518984 21.416956265518984 1.4269481937836328 0 0 0
1772 0 1 21.41776361721959 21.41776361721959 4.280044382780411 0 0 0
1773 0 1 21.41560594900183 21.41560594900183 7.137353346647031 0 0 0
1774 0 1 21.415073590665546 21.415073590665546 9.993308466739208 0 0 0
1775 0 1 21.41495996085621 21.414959960856205 12.848904000000001 0 0 0
1781 0 1 21.416080341328918 24.27102092717831 1.4267870728216931 0 0 0
1782 0 1 21.416956265518984 24.270859806216368 4.2808517344810175 0 0 0
1783 0 1 21.415483560692607 24.270456103849 7.137532852369795 0 0 0
1784 0 1 21.415019414943124 24.270251744152954 9.99337911911378 0 0 0
1785 0 1 21.414917380153014 24.270201540341546 12.848904000000001 0 0 0
1791 0 1 21.415756475237824 27.125464 1.4268422905471299 0 0 0
1792 0 1 21.416943014337853 27.125464 4.280864985662146 0 0 0
1793 0 1 21.415433533339808 27.125464 7.137587046027117 0 0 0
1794 0 1 21.41499165195184 27.125464 9.993405296821507 0 0 0
1795 0 1 21.414897126116294 27.125464 12.848904 0 0 0
1851 0 1 24.27020704337304 15.704266044102138 1.4276009566269614 0 0 0
1852 0 1 24.270251744152958 15.70442888088622 4.282788585056877 0 0 0
1853 0 1 24.27025945959796 15.704541765081743 7.137964804617705 0 0 0
1854 0 1 24.270239779202825 15.704470990717098 9.993337009282905 0 0 0
1855 0 1 24.270225263745566 15.70438064925893 12.848904000000001 0 0 0
1861 0 1 24.27033530292758 18.55974207078232 1.4274726970724223 0 0 0
1862 0 1 24.270456103849003 18.560275147630204 4.282324439307394 0 0 0
1863 0 1 24.270377238499503 18.560289793907526 7.1375182060924764 0 0 0
1864 0 1 24.27025945959796 18.559843195382296 9.993266234918257 0 0 0
1865 0 1 24.270220107094264 18.559691178402755 12.848904000000001 0 0 0
1871 0 1 24.271020927178306 21.416080341328918 1.4267870728216936 0 0 0
1872 0 1 24.270859806216368 21.416956265518984 4.280851734481016 0 0 0
1873 0 1 24.270456103849 21.415483560692607 7.137532852369797 0 0 0
1874 0 1 24.270251744152954 21.415019414943124 9.99337911911378 0 0 0
1875 0 1 24.270201540341546 21.414917380153014 12.848904000000001 0 0 0
1881 0 1 24.285958256407568 24.285958256407568 1.4118497435924355 0 0 0
1882 0 1 24.27102092717831 24.27102092717831 4.281727658671082 0 0 0
1883 0 1 24.27033530292758 24.27033530292758 7.1380659292176825 0 0 0
1884 0 1 24.27020704337304 24.27020704337304 9.99354195589786 0 0 0
1885 0 1 24.270172684894316 24.270172684894316 12.848904000000001 0 0 0
1891 0 1 24.276704191701782 27.125464 1.4211038082982197 0 0 0
1892 0 1 24.27096570945287 27.125464 4.282051524762176 0 0 0
1893 0 1 24.270286189878288 27.125464 7.138185863000071 0 0 0
1894 0 1 24.270181829457236 27.125463999999997 9.993592352300489 0 0 0
1895 0 1 24.2701567258636 27.125464 12.848904000000001 0 0 0
1951 0 1 27.125464 15.704215647699515 1.4276261705427649 0 0 0
1952 0 1 27.125464 15.704402703178495 4.282816348048161 0 0 0
1953 0 1 27.125464 15.70453616461302 7.137975476746097 0 0 0
1954 0 1 27.125464 15.704470162391836 9.993337837608165 0 0 0
1955 0 1 27.125464 15.704378229244119 12.848904000000001 0 0 0
1961 0 1 27.125464 18.559622136999927 1.4275218101217135 0 0 0
1962 0 1 27.125464 18.560220953972884 4.282374466660195 0 0 0
1963 0 1 27.125464 18.560280449974552 7.137527550025449 0 0 0
1964 0 1 27.125464 18.559832523253903 9.99327183538698 0 0 0
1965 0 1 27.125464 18.55967945895153 12.848904000000001 0 0 0
1971 0 1 27.125464 21.415756475237824 1.4268422905471303 0 0 0
1972 0 1 27.125464 21.416943014337853 4.280864985662147 0 0 0
1973 0 1 27.125464 21.415433533339808 7.137587046027117 0 0 0
1974 0 1 27.125464 21.41499165195184 9.993405296821507 0 0 0
1975 0 1 27.125464 21.414897126116294 12.848904000000001 0 0 0
1981 0 1 27.125464 24.276704191701782 1.4211038082982193 0 0 0
1982 0 1 27.125464 24.27096570945287 4.282051524762177 0 0 0
1983 0 1 27.125464 24.270286189878288 7.138185863000072 0 0 0
1984 0 1 27.125464 24.270181829457236 9.993592352300487 0 0 0
96 0 1 28.553115537559968 25.697812462440034 14.276538071186435 -1 0 0
996 0 1 25.697812462440034 25.697812462440034 14.276538071186437 0 0 0
6 0 1 28.553115537559968 28.553115537559968 14.276538071186435 -1 -1 0
906 0 1 25.697812462440034 28.553115537559968 14.276538071186435 0 -1 0
56 0 1 28.553082736100123 14.276671628720486 14.276671628720486 -1 0 0
57 0 1 28.553081014897078 14.27671323299582 17.13208663364204 -1 0 0
58 0 1 28.55308578593474 14.276681876452322 19.987324661959182 -1 0 0
59 0 1 28.55309930566451 14.276598098204152 22.842537440351222 -1 0 0
1999 0 1 27.125463999999997 27.125464 24.23120553815482 0 0 0
66 0 1 28.553081014897078 17.13208663364204 14.27671323299582 -1 0 0
67 0 1 28.55305646886162 17.132327015822263 17.132327015822266 -1 0 0
68 0 1 28.55303677956427 17.13237621705839 19.987627022890678 -1 0 0
69 0 1 28.55304816066141 17.13208038279134 22.84267105684704 -1 0 0
70 0 1 28.55309963142685 17.131800791769418 25.697828368573152 -1 0 0
76 0 1 28.55308578593474 19.98732466195918 14.276681876452322 -1 0 0
77 0 1 28.55303677956427 19.987627022890678 17.132376217058393 -1 0 0
78 0 1 28.5529203461142 19.988427452707704 19.988427452707707 -1 0 0
79 0 1 28.552860615365343 19.98809967635949 22.84325474778631 -1 0 0
80 0 1 7.645621424324467e-05 19.986967844771144 25.69773154378576 0 0 0
86 0 1 28.553099305664514 22.842537440351222 14.276598098204152 -1 0 0
87 0 1 28.553048160661415 22.84267105684704 17.132080382791344 -1 0 0
88 0 1 28.552860615365343 22.84325474778631 19.988099676359493 -1 0 0
89 0 1 28.552698565073104 22.846138359197237 22.846138359197237 -1 0 0
90 0 1 0.001546218110695953 22.842605281835244 25.6962617818893 0 0 0
910 0 1 25.738947541740725 28.511980458259277 25.738947541740725 0 -1 0
97 0 1 28.55309963142685 25.697828368573152 17.131800791769418 -1 0 0
98 0 1 7.645621424144079e-05 25.69773154378576 19.986967844771144 0 0 0
99 0 1 0.0015462181106970284 25.696261781889305 22.842605281835244 0 0 0
100 0 1 28.511980458259277 25.73894754174073 25.73894754174073 -1 0 0
156 0 1 2.8552014743777843 14.276671861275485 14.276671861275485 0 0 0
157 0 1 2.855191180853219 14.27671449333825 17.132096987156533 0 0 0
158 0 1 2.8551968785377944 14.276696258851317 19.987356580916344 0 0 0
159 0 1 2.855232614934395 14.27663334209067 22.842575385065608 0 0 0
160 0 1 2.855270559648778 14.276598098204152 25.697828694335488 0 0 0
166 0 1 2.85519118085322 17.132096987156533 14.27671449333825 0 0 0
167 0 1 2.855111105272541 17.1323320258745 17.1323320258745 0 0 0
168 0 1 2.8550344970320953 17.132413534728226 19.987665481752394 0 0 0
169 0 1 2.8550631456317537 17.13220231293524 22.84274485436825 0 0 0
170 0 1 2.855136943152963 17.132080382791344 25.697879839338587 0 0 0
176 0 1 2.8551968785377944 19.987356580916348 14.27669625885132 0 0 0
177 0 1 2.855034497032095 19.987665481752394 17.132413534728222 0 0 0
178 0 1 2.8546660728525235 19.988461802390407 19.988461802390407 0 0 0
179 0 1 2.8543037481729865 19.988437557459473 22.843504251827014 0 0 0
180 0 1 2.854553252213687 19.98809967635949 25.698067384634662 0 0 0
186 0 1 2.8552326149343945 22.842575385065604 14.27663334209067 0 0 0
187 0 1 2.8550631456317532 22.84274485436825 17.13220231293524 0 0 0
188 0 1 2.8543037481729856 22.843504251827014 19.988437557459477 0 0 0
189 0 1 2.848824080109075 22.84898391989093 22.848983919890927 0 0 0
190 0 1 2.851669640802765 22.846138359197237 25.698229434926898 0 0 0
196 0 1 2.855270559648778 25.697828694335488 14.276598098204152 0 0 0
197 0 1 2.8551369431529627 25.69787983933859 17.132080382791344 0 0 0
198 0 1 2.8545532522136896 25.69806738463466 19.988099676359493 0 0 0
199 0 1 2.851669640802764 25.698229434926898 22.846138359197237 0 0 0
200 0 1 2.8552027181647577 25.696261781889305 25.696261781889305 0 0 0
256 0 1 5.710453089696352 14.276670525722153 14.276670525722153 0 0 0
257 0 1 5.710424182822025 14.276714067502121 17.132107878503128 0 0 0
258 0 1 5.710415562241092 14.276718040329142 19.98739243775891 0 0 0
259 0 1 5.710451419083655 14.276696258851317 22.84261112146221 0 0 0
260 0 1 5.710483338040822 14.276681876452322 25.697842214065258 0 0 0
266 0 1 5.710424182822024 17.132107878503128 14.276714067502125 0 0 0
267 0 1 5.7102812473905695 17.132328218804105 17.132328218804105 0 0 0
268 0 1 5.7101046696520745 17.132474118757212 19.98770333034793 0 0 0
269 0 1 5.710142518247605 17.132413534728222 22.84277350296791 0 0 0
270 0 1 5.7101809771093235 17.132376217058393 25.69789122043573 0 0 0
276 0 1 5.710415562241092 19.98739243775891 14.276718040329142 0 0 0
277 0 1 5.7101046696520745 19.987703330347927 17.132474118757212 0 0 0
278 0 1 5.70918604562285 19.988621954377148 19.988621954377148 0 0 0
279 0 1 5.709346197609594 19.988461802390407 22.843141927147478 0 0 0
280 0 1 5.709380547292294 19.988427452707707 25.698007653885803 0 0 0
286 0 1 5.710451419083655 22.842611121462205 14.27669625885132 0 0 0
287 0 1 5.710142518247606 22.842773502967905 17.132413534728222 0 0 0
288 0 1 5.709346197609594 22.843141927147478 19.988461802390407 0 0 0
289 0 1 5.709370442540526 22.843504251827014 22.843504251827017 0 0 0
290 0 1 5.70970832364051 22.84325474778631 25.69806738463466 0 0 0
296 0 1 5.710483338040822 25.69784221406526 14.276681876452322 0 0 0
297 0 1 5.7101809771093235 25.69789122043573 17.132376217058393 0 0 0
298 0 1 5.7093805472922945 25.698007653885803 19.988427452707707 0 0 0
299 0 1 5.709708323640511 25.69806738463466 22.84325474778631 0 0 0
300 0 1 5.7108401552288575 25.69773154378576 25.69773154378576 0 0 0
356 0 1 8.565753819984199 14.276663806710783 14.276663806710783 0 0 0
357 0 1 8.565707907589768 14.276702875647771 17.13210009241023 0 0 0
358 0 1 8.565700121496874 14.276714067502125 19.987383817177978 0 0 0
359 0 1 8.565711012843469 14.27671449333825 22.842616819146784 0 0 0
360 0 1 8.565721366357963 14.27671323299582 25.69784698510292 0 0 0
366 0 1 8.56570790758977 17.13210009241023 14.276702875647771 0 0 0
367 0 1 8.565533766180069 17.13227423381993 17.13227423381993 0 0 0
368 0 1 8.565479781195897 17.1323282188041 19.987526752609433 0 0 0
369 0 1 8.5654759741255 17.1323320258745 22.84269689472746 0 0 0
370 0 1 8.565480984177738 17.132327015822266 25.697871531138382 0 0 0
376 0 1 8.565700121496874 19.987383817177978 14.276714067502121 0 0 0
377 0 1 8.565479781195897 19.98752675260943 17.132328218804105 0 0 0
378 0 1 8.56533388124279 19.987703330347927 19.987703330347927 0 0 0
379 0 1 8.565394465271776 19.987665481752394 22.84277350296791 0 0 0
380 0 1 8.56543178294161 19.987627022890674 25.69789122043573 0 0 0
386 0 1 8.565711012843469 22.842616819146784 14.27671449333825 0 0 0
387 0 1 8.5654759741255 22.84269689472746 17.1323320258745 0 0 0
388 0 1 8.565394465271778 22.84277350296791 19.987665481752394 0 0 0
389 0 1 8.56560568706476 22.84274485436825 22.84274485436825 0 0 0
390 0 1 8.565727617208658 22.84267105684704 25.69787983933859 0 0 0
396 0 1 8.565721366357963 25.69784698510292 14.27671323299582 0 0 0
397 0 1 8.565480984177738 25.697871531138382 17.132327015822266 0 0 0
398 0 1 8.565431782941609 25.69789122043573 19.987627022890678 0 0 0
399 0 1 8.565727617208658 25.697879839338587 22.84267105684704 0 0 0
400 0 1 8.566007208230582 25.697828368573152 25.697828368573152 0 0 0
456 0 1 11.421157284397243 14.276650715602758 14.276650715602758 0 0 0
457 0 1 11.421144193289217 14.276663806710783 17.132054180015803 0 0 0
458 0 1 11.421137474277849 14.276670525722153 19.98735491030365 0 0 0
459 0 1 11.421136138724515 14.276671861275489 22.84260652562222 0 0 0
460 0 1 11.421136371279514 14.276671628720486 25.697845263899875 0 0 0
466 0 1 11.421144193289217 17.1320541800158 14.276663806710783 0 0 0
467 0 1 11.42110512435223 17.13210009241023 17.13210009241023 0 0 0
468 0 1 11.421093932497877 17.132107878503124 19.987383817177978 0 0 0
469 0 1 11.421093506661752 17.132096987156533 22.84261681914678 0 0 0
470 0 1 11.421094767004178 17.13208663364204 25.697846985102924 0 0 0
476 0 1 11.421137474277849 19.98735491030365 14.276670525722153 0 0 0
477 0 1 11.421093932497877 19.987383817177975 17.132107878503128 0 0 0
478 0 1 11.421089959670859 19.98739243775891 19.98739243775891 0 0 0
479 0 1 11.421111741148682 19.987356580916348 22.842611121462205 0 0 0
480 0 1 11.421126123547678 19.98732466195918 25.69784221406526 0 0 0
486 0 1 11.421136138724515 22.842606525622216 14.276671861275485 0 0 0
487 0 1 11.421093506661752 22.84261681914678 17.132096987156533 0 0 0
488 0 1 11.421111741148682 22.842611121462205 19.987356580916348 0 0 0
489 0 1 11.421174657909333 22.842575385065608 22.842575385065608 0 0 0
490 0 1 11.421209901795848 22.842537440351226 25.697828694335488 0 0 0
496 0 1 11.421136371279516 25.697845263899875 14.276671628720486 0 0 0
497 0 1 11.42109476700418 25.697846985102924 17.13208663364204 0 0 0
498 0 1 11.421126123547678 25.697842214065258 19.98732466195918 0 0 0
499 0 1 11.421209901795848 25.697828694335488 22.842537440351222 0 0 0
500 0 1 11.421269928813565 25.697812462440034 25.697812462440034 0 0 0
556 0 1 14.276650715602758 14.276650715602758 14.276650715602758 0 0 0
557 0 1 14.276663806710783 14.276663806710783 17.132054180015803 0 0 0
558 0 1 14.276670525722153 14.276670525722153 19.987354910303647 0 0 0
559 0 1 14.276671861275489 14.276671861275485 22.84260652562222 0 0 0
560 0 1 14.276671628720486 14.276671628720486 25.697845263899875 0 0 0
566 0 1 14.276663806710783 17.132054180015803 14.276663806710783 0 0 0
567 0 1 14.276702875647771 17.13210009241023 17.13210009241023 0 0 0
568 0 1 14.276714067502121 17.132107878503128 19.987383817177978 0 0 0
569 0 1 14.276714493338247 17.132096987156533 22.842616819146784 0 0 0
570 0 1 14.27671323299582 17.13208663364204 25.697846985102924 0 0 0
576 0 1 14.276670525722153 19.98735491030365 14.276670525722153 0 0 0
577 0 1 14.276714067502121 19.987383817177978 17.132107878503128 0 0 0
578 0 1 14.276718040329142 19.987392437758906 19.98739243775891 0 0 0
579 0 1 14.276696258851317 19.987356580916348 22.84261112146221 0 0 0
580 0 1 14.276681876452322 19.98732466195918 25.697842214065258 0 0 0
586 0 1 14.276671861275485 22.842606525622216 14.276671861275485 0 0 0
587 0 1 14.27671449333825 22.84261681914678 17.132096987156533 0 0 0
588 0 1 14.276696258851317 22.842611121462205 19.987356580916344 0 0 0
589 0 1 14.27663334209067 22.842575385065604 22.842575385065608 0 0 0
590 0 1 14.276598098204152 22.842537440351222 25.697828694335488 0 0 0
596 0 1 14.276671628720486 25.697845263899875 14.276671628720486 0 0 0
597 0 1 14.27671323299582 25.69784698510292 17.13208663364204 0 0 0
598 0 1 14.276681876452322 25.697842214065258 19.98732466195918 0 0 0
599 0 1 14.276598098204152 25.697828694335488 22.842537440351222 0 0 0
600 0 1 14.276538071186437 25.697812462440034 25.697812462440034 0 0 0
656 0 1 17.132054180015803 14.276663806710783 14.276663806710783 0 0 0
657 0 1 17.13210009241023 14.276702875647771 17.132100092410234 0 0 0
658 0 1 17.132107878503128 14.276714067502125 19.987383817177975 0 0 0
659 0 1 17.132096987156533 14.276714493338254 22.842616819146784 0 0 0
660 0 1 17.13208663364204 14.27671323299582 25.69784698510292 0 0 0
666 0 1 17.13210009241023 17.13210009241023 14.276702875647771 0 0 0
667 0 1 17.13227423381993 17.13227423381993 17.13227423381993 0 0 0
668 0 1 17.132328218804105 17.132328218804105 19.987526752609433 0 0 0
669 0 1 17.1323320258745 17.1323320258745 22.84269689472746 0 0 0
670 0 1 17.132327015822266 17.132327015822263 25.697871531138382 0 0 0
676 0 1 17.132107878503124 19.987383817177978 14.276714067502125 0 0 0
677 0 1 17.132328218804105 19.987526752609433 17.132328218804105 0 0 0
678 0 1 17.13247411875721 19.987703330347927 19.987703330347927 0 0 0
679 0 1 17.132413534728222 19.987665481752398 22.84277350296791 0 0 0
680 0 1 17.132376217058393 19.987627022890678 25.69789122043573 0 0 0
686 0 1 17.132096987156533 22.842616819146784 14.27671449333825 0 0 0
687 0 1 17.1323320258745 22.84269689472746 17.1323320258745 0 0 0
688 0 1 17.132413534728222 22.842773502967905 19.987665481752394 0 0 0
689 0 1 17.13220231293524 22.842744854368245 22.842744854368245 0 0 0
690 0 1 17.132080382791344 22.84267105684704 25.69787983933859 0 0 0
696 0 1 17.13208663364204 25.69784698510292 14.27671323299582 0 0 0
697 0 1 17.132327015822263 25.69787153113838 17.132327015822263 0 0 0
698 0 1 17.13237621705839 25.69789122043573 19.987627022890678 0 0 0
699 0 1 17.132080382791344 25.697879839338587 22.842671056847035 0 0 0
700 0 1 17.131800791769418 25.697828368573152 25.697828368573152 0 0 0
756 0 1 19.98735491030365 14.27667052572215 14.27667052572215 0 0 0
757 0 1 19.987383817177978 14.276714067502121 17.132107878503128 0 0 0
758 0 1 19.98739243775891 14.276718040329142 19.98739243775891 0 0 0
759 0 1 19.987356580916348 14.276696258851317 22.842611121462205 0 0 0
760 0 1 19.987324661959182 14.276681876452319 25.697842214065258 0 0 0
766 0 1 19.987383817177978 17.132107878503128 14.276714067502121 0 0 0
767 0 1 19.98752675260943 17.132328218804105 17.132328218804105 0 0 0
768 0 1 19.987703330347927 17.132474118757212 19.987703330347927 0 0 0
769 0 1 19.987665481752394 17.132413534728226 22.842773502967905 0 0 0
770 0 1 19.987627022890678 17.132376217058393 25.69789122043573 0 0 0
776 0 1 19.98739243775891 19.98739243775891 14.276718040329142 0 0 0
777 0 1 19.987703330347927 19.987703330347927 17.132474118757212 0 0 0
778 0 1 19.98862195437715 19.988621954377148 19.98862195437715 0 0 0
779 0 1 19.988461802390407 19.988461802390407 22.843141927147478 0 0 0
780 0 1 19.988427452707707 19.988427452707707 25.698007653885803 0 0 0
786 0 1 19.987356580916348 22.84261112146221 14.276696258851317 0 0 0
787 0 1 19.987665481752394 22.842773502967905 17.132413534728222 0 0 0
788 0 1 19.988461802390407 22.843141927147478 19.988461802390407 0 0 0
789 0 1 19.988437557459477 22.843504251827014 22.843504251827017 0 0 0
790 0 1 19.98809967635949 22.843254747786315 25.69806738463466 0 0 0
796 0 1 19.98732466195918 25.697842214065258 14.276681876452322 0 0 0
797 0 1 19.98762702289068 25.69789122043573 17.132376217058393 0 0 0
798 0 1 19.988427452707707 25.698007653885803 19.988427452707704 0 0 0
799 0 1 19.98809967635949 25.69806738463466 22.843254747786315 0 0 0
800 0 1 19.986967844771144 25.69773154378576 25.697731543785757 0 0 0
856 0 1 22.842606525622216 14.276671861275485 14.276671861275485 0 0 0
857 0 1 22.84261681914678 14.27671449333825 17.132096987156533 0 0 0
858 0 1 22.842611121462205 14.27669625885132 19.987356580916348 0 0 0
859 0 1 22.842575385065604 14.27663334209067 22.842575385065608 0 0 0
860 0 1 22.842537440351222 14.276598098204152 25.697828694335488 0 0 0
866 0 1 22.84261681914678 17.13209698715653 14.276714493338247 0 0 0
867 0 1 22.84269689472746 17.1323320258745 17.1323320258745 0 0 0
868 0 1 22.84277350296791 17.132413534728222 19.987665481752394 0 0 0
869 0 1 22.84274485436825 17.13220231293524 22.84274485436825 0 0 0
870 0 1 22.84267105684704 17.132080382791344 25.69787983933859 0 0 0
876 0 1 22.842611121462205 19.987356580916348 14.276696258851317 0 0 0
877 0 1 22.84277350296791 19.987665481752394 17.132413534728226 0 0 0
878 0 1 22.843141927147478 19.988461802390407 19.988461802390407 0 0 0
879 0 1 22.843504251827014 19.988437557459477 22.843504251827017 0 0 0
880 0 1 22.84325474778631 19.98809967635949 25.69806738463466 0 0 0
886 0 1 22.842575385065608 22.842575385065604 14.27663334209067 0 0 0
887 0 1 22.84274485436825 22.842744854368245 17.13220231293524 0 0 0
888 0 1 22.843504251827014 22.843504251827014 19.988437557459477 0 0 0
889 0 1 22.848983919890927 22.848983919890927 22.848983919890927 0 0 0
890 0 1 22.846138359197237 22.846138359197237 25.698229434926898 0 0 0
896 0 1 22.842537440351222 25.697828694335488 14.276598098204152 0 0 0
897 0 1 22.84267105684704 25.69787983933859 17.13208038279134 0 0 0
898 0 1 22.84325474778631 25.69806738463466 19.988099676359493 0 0 0
899 0 1 22.846138359197237 25.698229434926898 22.846138359197237 0 0 0
900 0 1 22.842605281835244 25.696261781889305 25.696261781889305 0 0 0
956 0 1 25.697845263899875 14.276671628720486 14.27667162872049 0 0 0
957 0 1 25.697846985102924 14.27671323299582 17.13208663364204 0 0 0
958 0 1 25.697842214065258 14.276681876452319 19.98732466195918 0 0 0
959 0 1 25.697828694335488 14.276598098204152 22.842537440351222 0 0 0
1998 0 1 27.125464 27.125464 21.412419643957953 0 0 0
966 0 1 25.69784698510292 17.13208663364204 14.27671323299582 0 0 0
967 0 1 25.69787153113838 17.132327015822263 17.132327015822263 0 0 0
968 0 1 25.69789122043573 17.132376217058393 19.987627022890678 0 0 0
969 0 1 25.697879839338587 17.132080382791344 22.84267105684704 0 0 0
970 0 1 25.697828368573152 17.131800791769418 25.697828368573152 0 0 0
976 0 1 25.69784221406526 19.98732466195918 14.276681876452326 0 0 0
977 0 1 25.69789122043573 19.987627022890678 17.13237621705839 0 0 0
978 0 1 25.698007653885803 19.988427452707707 19.988427452707707 0 0 0
979 0 1 25.69806738463466 19.98809967635949 22.84325474778631 0 0 0
980 0 1 25.69773154378576 19.986967844771144 25.69773154378576 0 0 0
986 0 1 25.697828694335488 22.842537440351222 14.276598098204152 0 0 0
987 0 1 25.697879839338587 22.84267105684704 17.132080382791344 0 0 0
988 0 1 25.69806738463466 22.84325474778631 19.988099676359493 0 0 0
989 0 1 25.698229434926898 22.846138359197237 22.846138359197237 0 0 0
990 0 1 25.696261781889305 22.842605281835244 25.696261781889305 0 0 0
907 0 1 25.697828368573152 28.55309963142685 17.131800791769418 0 -1 0
997 0 1 25.697828368573152 25.697828368573152 17.13180079176942 0 0 0
998 0 1 25.69773154378576 25.69773154378576 19.986967844771144 0 0 0
999 0 1 25.696261781889305 25.696261781889305 22.842605281835244 0 0 0
1000 0 1 25.73894754174073 25.73894754174073 25.738947541740725 0 0 0
1056 0 1 1.427568220797177 15.704470990717095 15.704470990717098 0 0 0
1057 0 1 1.427548540402043 15.704541765081743 18.559843195382296 0 0 0
1058 0 1 1.427556255847045 15.70442888088622 21.415019414943124 0 0 0
1059 0 1 1.4276009566269616 15.704266044102138 24.27020704337304 0 0 0
1060 0 1 1.4276261705427649 15.704215647699511 27.125464 0 0 0
1066 0 1 1.427548540402043 18.559843195382296 15.704541765081743 0 0 0
1067 0 1 1.4274307615004957 18.560289793907526 18.560289793907526 0 0 0
1068 0 1 1.4273518961509997 18.560275147630204 21.415483560692607 0 0 0
1069 0 1 1.4274726970724216 18.55974207078232 24.270335302927577 0 0 0
1070 0 1 1.4275218101217138 18.55962213699993 27.125464 0 0 0
1076 0 1 1.4275562558470465 21.415019414943124 15.704428880886223 0 0 0
1077 0 1 1.4273518961510006 21.415483560692607 18.560275147630204 0 0 0
1078 0 1 1.4269481937836335 21.416956265518984 21.416956265518984 0 0 0
1079 0 1 1.4267870728216931 21.416080341328918 24.27102092717831 0 0 0
1080 0 1 1.4268422905471296 21.415756475237824 27.125464 0 0 0
1086 0 1 1.4276009566269625 24.270207043373038 15.70426604410214 0 0 0
1087 0 1 1.4274726970724199 24.270335302927577 18.55974207078232 0 0 0
1088 0 1 1.4267870728216943 24.271020927178306 21.416080341328918 0 0 0
1089 0 1 1.4118497435924355 24.285958256407564 24.285958256407568 0 0 0
1090 0 1 1.4211038082982197 24.276704191701782 27.125464 0 0 0
1096 0 1 1.427626170542766 27.125464 15.704215647699515 0 0 0
1097 0 1 1.4275218101217133 27.125464 18.55962213699993 0 0 0
1098 0 1 1.4268422905471314 27.125464 21.415756475237824 0 0 0
1099 0 1 1.4211038082982195 27.125464 24.276704191701782 0 0 0
1100 0 1 1.4666024618451834 27.125464 27.125464 0 0 0
1156 0 1 4.282790587680908 15.704471272234981 15.704471272234981 0 0 0
1157 0 1 4.282736643587795 15.704555189936645 18.559865707187605 0 0 0
1158 0 1 4.2827344093344575 15.704499533260798 21.415073590665543 0 0 0
1159 0 1 4.282788585056876 15.70442888088622 24.270251744152958 0 0 0
1160 0 1 4.282816348048161 15.704402703178495 27.125464 0 0 0
1166 0 1 4.282736643587795 18.559865707187605 15.704555189936645 0 0 0
1167 0 1 4.282480816771868 18.560304035626956 18.560304035626956 0 0 0
1168 0 1 4.282202050998173 18.560454653352966 21.41560594900183 0 0 0
1169 0 1 4.282324439307395 18.560275147630204 24.270456103849 0 0 0
1170 0 1 4.282374466660195 18.56022095397288 27.125464 0 0 0
1176 0 1 4.2827344093344575 21.415073590665543 15.704499533260794 0 0 0
1177 0 1 4.2822020509981735 21.41560594900183 18.560454653352966 0 0 0
1178 0 1 4.28004438278041 21.41776361721959 21.41776361721959 0 0 0
1179 0 1 4.280851734481018 21.416956265518984 24.270859806216368 0 0 0
1180 0 1 4.280864985662146 21.416943014337853 27.125464 0 0 0
1186 0 1 4.282788585056876 24.270251744152954 15.704428880886223 0 0 0
1187 0 1 4.282324439307396 24.270456103849 18.560275147630204 0 0 0
1188 0 1 4.280851734481017 24.270859806216368 21.416956265518984 0 0 0
1189 0 1 4.281727658671084 24.271020927178306 24.27102092717831 0 0 0
1190 0 1 4.282051524762176 24.27096570945287 27.125464 0 0 0
1196 0 1 4.282816348048161 27.125464 15.704402703178495 0 0 0
1197 0 1 4.282374466660194 27.125464 18.560220953972884 0 0 0
1198 0 1 4.280864985662146 27.125464 21.416943014337857 0 0 0
1199 0 1 4.282051524762177 27.125464 24.27096570945287 0 0 0
1200 0 1 4.2853883560420485 27.125464 27.125464 0 0 0
1256 0 1 7.138037070824847 15.70446149334378 15.70446149334378 0 0 0
1257 0 1 7.137939862350665 15.704557540227544 18.559868137649335 0 0 0
1258 0 1 7.137942292812396 15.704555189936645 21.415071356412206 0 0 0
1259 0 1 7.137964804617705 15.704541765081743 24.27025945959796 0 0 0
1260 0 1 7.137975476746097 15.70453616461302 27.125464 0 0 0
1266 0 1 7.137939862350664 18.559868137649335 15.704557540227547 0 0 0
1267 0 1 7.137527731514223 18.56028026848578 18.56028026848578 0 0 0
1268 0 1 7.137503964373044 18.560304035626956 21.415327183228136 0 0 0
1269 0 1 7.1375182060924764 18.560289793907526 24.270377238499506 0 0 0
1270 0 1 7.13752755002545 18.560280449974552 27.125464 0 0 0
1276 0 1 7.137942292812397 21.415071356412206 15.704555189936645 0 0 0
1277 0 1 7.137503964373046 21.415327183228133 18.560304035626956 0 0 0
1278 0 1 7.137353346647034 21.41560594900183 21.41560594900183 0 0 0
1279 0 1 7.137532852369797 21.415483560692604 24.270456103849 0 0 0
1280 0 1 7.137587046027117 21.415433533339808 27.125464 0 0 0
1286 0 1 7.137964804617706 24.27025945959796 15.704541765081743 0 0 0
1287 0 1 7.137518206092476 24.270377238499506 18.560289793907526 0 0 0
1288 0 1 7.137532852369797 24.270456103849 21.415483560692607 0 0 0
1289 0 1 7.138065929217681 24.270335302927577 24.27033530292758 0 0 0
1290 0 1 7.138185863000072 24.270286189878288 27.125464 0 0 0
1296 0 1 7.137975476746097 27.125464 15.70453616461302 0 0 0
1297 0 1 7.1375275500254505 27.125464 18.560280449974552 0 0 0
1298 0 1 7.137587046027118 27.125464 21.415433533339808 0 0 0
1299 0 1 7.138185863000071 27.125464 24.270286189878288 0 0 0
1300 0 1 7.138589878112682 27.125464 27.125464 0 0 0
1356 0 1 9.993383226711726 15.704424773288276 15.704424773288272 0 0 0
1357 0 1 9.993346506656222 15.70446149334378 18.559770929175155 0 0 0
1358 0 1 9.99333672776502 15.704471272234981 21.415017412319095 0 0 0
1359 0 1 9.993337009282904 15.704470990717095 24.270239779202825 0 0 0
1360 0 1 9.993337837608166 15.704470162391836 27.125464 0 0 0
1366 0 1 9.993346506656222 18.559770929175155 15.70446149334378 0 0 0
1367 0 1 9.993250459772455 18.559868137649335 18.55986813764934 0 0 0
1368 0 1 9.993252810063357 18.559865707187605 21.415071356412206 0 0 0
1369 0 1 9.993266234918257 18.559843195382296 24.27025945959796 0 0 0
1370 0 1 9.993271835386981 18.559832523253903 27.125464 0 0 0
1376 0 1 9.99333672776502 21.41501741231909 15.704471272234981 0 0 0
1377 0 1 9.993252810063357 21.415071356412206 18.559865707187605 0 0 0
1378 0 1 9.993308466739206 21.415073590665546 21.415073590665543 0 0 0
1379 0 1 9.99337911911378 21.415019414943124 24.270251744152954 0 0 0
1380 0 1 9.993405296821507 21.41499165195184 27.125464 0 0 0
1386 0 1 9.993337009282904 24.270239779202825 15.704470990717098 0 0 0
1387 0 1 9.99326623491826 24.27025945959796 18.559843195382296 0 0 0
1388 0 1 9.99337911911378 24.270251744152954 21.415019414943124 0 0 0
1389 0 1 9.993541955897863 24.270207043373038 24.27020704337304 0 0 0
1390 0 1 9.993592352300487 24.270181829457236 27.125463999999997 0 0 0
1396 0 1 9.993337837608168 27.125464 15.704470162391836 0 0 0
1397 0 1 9.993271835386981 27.125464 18.559832523253903 0 0 0
1398 0 1 9.993405296821505 27.125464 21.41499165195184 0 0 0
1399 0 1 9.993592352300487 27.125464 24.270181829457236 0 0 0
1400 0 1 9.99367650558641 27.125464 27.125464 0 0 0
1456 0 1 12.848904000000001 15.704374079524136 15.704374079524136 0 0 0
1457 0 1 12.848904000000001 15.70438622369423 18.559717936346466 0 0 0
1458 0 1 12.848904 15.70438568392366 21.414984096041593 0 0 0
1459 0 1 12.848904000000001 15.70438064925893 24.270225263745566 0 0 0
1460 0 1 12.848904000000001 15.704378229244119 27.125464 0 0 0
1466 0 1 12.848904 18.559717936346466 15.704386223694234 0 0 0
1467 0 1 12.848904 18.559736806316998 18.559736806316998 0 0 0
1468 0 1 12.848904 18.55971821681423 21.414985911628175 0 0 0
1469 0 1 12.848904000000001 18.55969117840276 24.270220107094264 0 0 0
1470 0 1 12.848904000000001 18.559679458951525 27.125464 0 0 0
1476 0 1 12.848904 21.41498409604159 15.70438568392366 0 0 0
1477 0 1 12.848904 21.414985911628172 18.55971821681423 0 0 0
1478 0 1 12.848904 21.41495996085621 21.41495996085621 0 0 0
1479 0 1 12.848904000000001 21.414917380153014 24.270201540341546 0 0 0
1480 0 1 12.848904000000001 21.414897126116294 27.125464 0 0 0
1486 0 1 12.848904000000001 24.27022526374557 15.70438064925893 0 0 0
1487 0 1 12.848904000000001 24.270220107094264 18.55969117840276 0 0 0
1488 0 1 12.848904000000001 24.270201540341546 21.414917380153014 0 0 0
1489 0 1 12.848904000000001 24.270172684894316 24.270172684894316 0 0 0
1490 0 1 12.848904 24.2701567258636 27.125464 0 0 0
1496 0 1 12.848904000000001 27.125464 15.704378229244119 0 0 0
1497 0 1 12.848904000000001 27.125464 18.55967945895153 0 0 0
1498 0 1 12.848904000000001 27.125464 21.414897126116294 0 0 0
1499 0 1 12.848904000000001 27.125464 24.2701567258636 0 0 0
1500 0 1 12.848904000000001 27.125464 27.125464 0 0 0
1556 0 1 15.704424773288276 15.704424773288276 15.704424773288276 0 0 0
1557 0 1 15.70446149334378 15.70446149334378 18.559770929175155 0 0 0
1558 0 1 15.704471272234981 15.704471272234981 21.415017412319095 0 0 0
1559 0 1 15.704470990717098 15.704470990717095 24.270239779202825 0 0 0
1560 0 1 15.704470162391836 15.70447016239184 27.125464 0 0 0
1566 0 1 15.70446149334378 18.559770929175155 15.70446149334378 0 0 0
1567 0 1 15.704557540227544 18.559868137649335 18.55986813764934 0 0 0
1568 0 1 15.704555189936645 18.559865707187605 21.415071356412206 0 0 0
1569 0 1 15.704541765081743 18.559843195382296 24.27025945959796 0 0 0
1570 0 1 15.70453616461302 18.559832523253903 27.125464 0 0 0
1576 0 1 15.704471272234981 21.41501741231909 15.704471272234981 0 0 0
1577 0 1 15.704555189936645 21.415071356412206 18.559865707187605 0 0 0
1578 0 1 15.704499533260798 21.415073590665543 21.415073590665543 0 0 0
1579 0 1 15.704428880886223 21.415019414943124 24.270251744152954 0 0 0
1580 0 1 15.704402703178495 21.41499165195184 27.125464 0 0 0
1586 0 1 15.704470990717098 24.270239779202825 15.704470990717098 0 0 0
1587 0 1 15.704541765081743 24.27025945959796 18.559843195382296 0 0 0
1588 0 1 15.70442888088622 24.270251744152954 21.415019414943124 0 0 0
1589 0 1 15.704266044102138 24.27020704337304 24.27020704337304 0 0 0
1590 0 1 15.704215647699515 24.270181829457236 27.125464 0 0 0
1596 0 1 15.704470162391836 27.125464 15.70447016239184 0 0 0
1597 0 1 15.70453616461302 27.125464 18.559832523253903 0 0 0
1598 0 1 15.704402703178495 27.125463999999997 21.41499165195184 0 0 0
1599 0 1 15.704215647699511 27.125464 24.270181829457236 0 0 0
1600 0 1 15.70413149441359 27.125464 27.125464 0 0 0
1656 0 1 18.55977092917515 15.70446149334378 15.70446149334378 0 0 0
1657 0 1 18.559868137649335 15.704557540227544 18.559868137649335 0 0 0
1658 0 1 18.559865707187605 15.704555189936645 21.415071356412206 0 0 0
1659 0 1 18.559843195382296 15.704541765081743 24.27025945959796 0 0 0
1660 0 1 18.559832523253903 15.704536164613023 27.125464 0 0 0
1666 0 1 18.559868137649335 18.559868137649335 15.704557540227547 0 0 0
1667 0 1 18.56028026848578 18.56028026848578 18.560280268485776 0 0 0
1668 0 1 18.560304035626956 18.560304035626956 21.415327183228133 0 0 0
1669 0 1 18.560289793907526 18.560289793907526 24.270377238499503 0 0 0
1670 0 1 18.560280449974552 18.560280449974552 27.125464 0 0 0
1676 0 1 18.5598657071876 21.415071356412206 15.704555189936645 0 0 0
1677 0 1 18.560304035626956 21.415327183228133 18.560304035626956 0 0 0
1678 0 1 18.560454653352966 21.415605949001826 21.41560594900183 0 0 0
1679 0 1 18.560275147630204 21.415483560692604 24.270456103849 0 0 0
1680 0 1 18.56022095397288 21.415433533339808 27.125464 0 0 0
1686 0 1 18.559843195382296 24.27025945959796 15.704541765081743 0 0 0
1687 0 1 18.560289793907526 24.270377238499503 18.560289793907526 0 0 0
1688 0 1 18.560275147630204 24.270456103849 21.415483560692607 0 0 0
1689 0 1 18.55974207078232 24.27033530292758 24.270335302927577 0 0 0
1690 0 1 18.55962213699993 24.270286189878288 27.125464 0 0 0
1696 0 1 18.559832523253903 27.125464 15.70453616461302 0 0 0
1697 0 1 18.560280449974552 27.125464 18.56028044997455 0 0 0
1698 0 1 18.56022095397288 27.125464 21.415433533339808 0 0 0
1699 0 1 18.55962213699993 27.125464 24.270286189878288 0 0 0
1700 0 1 18.55921812188732 27.125464 27.125464 0 0 0
1756 0 1 21.415017412319095 15.704471272234981 15.704471272234981 0 0 0
1757 0 1 21.415071356412206 15.704555189936645 18.559865707187605 0 0 0
1758 0 1 21.415073590665546 15.704499533260794 21.415073590665543 0 0 0
1759 0 1 21.415019414943124 15.70442888088622 24.270251744152958 0 0 0
1760 0 1 21.41499165195184 15.704402703178495 27.125464 0 0 0
1766 0 1 21.415071356412206 18.559865707187605 15.704555189936645 0 0 0
1767 0 1 21.415327183228133 18.560304035626956 18.560304035626956 0 0 0
1768 0 1 21.415605949001826 18.560454653352966 21.415605949001826 0 0 0
1769 0 1 21.415483560692607 18.560275147630204 24.270456103849003 0 0 0
1770 0 1 21.415433533339808 18.560220953972884 27.125464 0 0 0
1776 0 1 21.415073590665543 21.415073590665543 15.704499533260794 0 0 0
1777 0 1 21.41560594900183 21.41560594900183 18.560454653352966 0 0 0
1778 0 1 21.41776361721959 21.41776361721959 21.41776361721959 0 0 0
1779 0 1 21.416956265518984 21.416956265518984 24.270859806216368 0 0 0
1780 0 1 21.416943014337853 21.416943014337853 27.125464 0 0 0
1786 0 1 21.415019414943124 24.270251744152954 15.70442888088622 0 0 0
1787 0 1 21.415483560692604 24.270456103849 18.560275147630204 0 0 0
1788 0 1 21.416956265518984 24.270859806216368 21.416956265518984 0 0 0
1789 0 1 21.416080341328914 24.271020927178306 24.27102092717831 0 0 0
1790 0 1 21.415756475237824 24.270965709452874 27.125464 0 0 0
1796 0 1 21.41499165195184 27.125464 15.704402703178495 0 0 0
1797 0 1 21.415433533339804 27.125464 18.560220953972884 0 0 0
1798 0 1 21.416943014337857 27.125464 21.416943014337857 0 0 0
1799 0 1 21.41575647523782 27.125464 24.27096570945287 0 0 0
1800 0 1 21.412419643957953 27.125464 27.125464 0 0 0
1856 0 1 24.270239779202825 15.704470990717098 15.704470990717095 0 0 0
1857 0 1 24.27025945959796 15.704541765081743 18.559843195382296 0 0 0
1858 0 1 24.270251744152954 15.704428880886223 21.415019414943124 0 0 0
1859 0 1 24.270207043373038 15.704266044102138 24.27020704337304 0 0 0
1860 0 1 24.270181829457236 15.704215647699515 27.125464 0 0 0
1866 0 1 24.27025945959796 18.559843195382296 15.704541765081743 0 0 0
1867 0 1 24.270377238499506 18.560289793907526 18.560289793907526 0 0 0
1868 0 1 24.270456103849003 18.560275147630204 21.415483560692607 0 0 0
1869 0 1 24.27033530292758 18.55974207078232 24.270335302927577 0 0 0
1870 0 1 24.270286189878288 18.55962213699993 27.125464 0 0 0
1876 0 1 24.270251744152954 21.415019414943124 15.704428880886223 0 0 0
1877 0 1 24.270456103849 21.415483560692607 18.560275147630204 0 0 0
1878 0 1 24.270859806216365 21.416956265518984 21.416956265518984 0 0 0
1879 0 1 24.271020927178306 21.416080341328918 24.271020927178306 0 0 0
1880 0 1 24.27096570945287 21.415756475237824 27.125464 0 0 0
1886 0 1 24.270207043373038 24.270207043373038 15.70426604410214 0 0 0
1887 0 1 24.27033530292758 24.27033530292758 18.55974207078232 0 0 0
1888 0 1 24.271020927178306 24.271020927178306 21.416080341328918 0 0 0
1889 0 1 24.285958256407564 24.285958256407564 24.285958256407564 0 0 0
1890 0 1 24.276704191701782 24.276704191701782 27.125464 0 0 0
1896 0 1 24.270181829457236 27.125464 15.704215647699515 0 0 0
1897 0 1 24.27028618987829 27.125464 18.55962213699993 0 0 0
1898 0 1 24.27096570945287 27.125464 21.415756475237824 0 0 0
1899 0 1 24.276704191701782 27.125464 24.276704191701782 0 0 0
1900 0 1 24.231205538154818 27.125464 27.125464 0 0 0
1956 0 1 27.125464 15.704470162391832 15.704470162391836 0 0 0
1957 0 1 27.125464 15.70453616461302 18.559832523253903 0 0 0
1958 0 1 27.125464 15.704402703178493 21.41499165195184 0 0 0
1959 0 1 27.125464 15.704215647699515 24.27018182945724 0 0 0
1960 0 1 27.125464 15.70413149441359 27.125464 0 0 0
1966 0 1 27.125464 18.559832523253906 15.70453616461302 0 0 0
1967 0 1 27.125464 18.56028044997455 18.560280449974552 0 0 0
1968 0 1 27.125464 18.56022095397288 21.415433533339808 0 0 0
1969 0 1 27.125464 18.55962213699993 24.270286189878288 0 0 0
1970 0 1 27.125463999999997 18.55921812188732 27.125464 0 0 0
1976 0 1 27.125464 21.414991651951837 15.704402703178495 0 0 0
1977 0 1 27.125464 21.415433533339804 18.560220953972884 0 0 0
1978 0 1 27.125464 21.416943014337857 21.416943014337853 0 0 0
1979 0 1 27.125464 21.415756475237828 24.27096570945287 0 0 0
1980 0 1 27.125464 21.412419643957953 27.125464 0 0 0
1986 0 1 27.125464 24.270181829457236 15.704215647699515 0 0 0
1987 0 1 27.125464 24.270286189878288 18.55962213699993 0 0 0
1988 0 1 27.125464 24.27096570945287 21.415756475237824 0 0 0
1989 0 1 27.125464 24.276704191701782 24.276704191701782 0 0 0
1990 0 1 27.125464 24.231205538154818 27.125464 0 0 0
1996 0 1 27.125464 27.125464 15.70413149441359 0 0 0
1997 0 1 27.125464 27.125464 18.55921812188732 0 0 0
809 0 1 22.846138359197237 28.552698565073104 22.846138359197234 0 -1 0
7 0 1 28.55309963142685 28.55309963142685 17.131800791769418 -1 -1 0
10 0 1 28.511980458259274 28.511980458259274 25.73894754174073 -1 -1 0
106 0 1 2.855270559648778 28.553099305664514 14.276598098204152 0 -1 0
107 0 1 2.8551369431529627 28.55304816066141 17.132080382791344 0 -1 0
108 0 1 2.854553252213689 28.552860615365343 19.988099676359493 0 -1 0
109 0 1 2.851669640802764 28.552698565073104 22.846138359197237 0 -1 0
206 0 1 5.710483338040822 28.55308578593474 14.276681876452326 0 -1 0
207 0 1 5.7101809771093235 28.553036779564273 17.132376217058393 0 -1 0
208 0 1 5.709380547292294 28.5529203461142 19.988427452707707 0 -1 0
209 0 1 5.709708323640511 28.552860615365343 22.843254747786315 0 -1 0
306 0 1 8.56572136635796 28.55308101489708 14.27671323299582 0 -1 0
307 0 1 8.565480984177738 28.55305646886162 17.132327015822266 0 -1 0
308 0 1 8.565431782941609 28.55303677956427 19.987627022890678 0 -1 0
309 0 1 8.565727617208658 28.55304816066141 22.84267105684704 0 -1 0
310 0 1 8.566007208230582 28.55309963142685 25.697828368573152 0 -1 0
406 0 1 11.421136371279516 28.553082736100123 14.276671628720486 0 -1 0
407 0 1 11.421094767004178 28.55308101489708 17.13208663364204 0 -1 0
408 0 1 11.42112612354768 28.55308578593474 19.98732466195918 0 -1 0
409 0 1 11.421209901795848 28.553099305664514 22.842537440351222 0 -1 0
410 0 1 11.421269928813565 28.553115537559968 25.697812462440034 0 -1 0
506 0 1 14.276671628720486 28.553082736100123 14.276671628720486 0 -1 0
507 0 1 14.276713232995824 28.553081014897078 17.13208663364204 0 -1 0
508 0 1 14.276681876452322 28.55308578593474 19.98732466195918 0 -1 0
509 0 1 14.276598098204152 28.553099305664514 22.842537440351222 0 -1 0
510 0 1 14.276538071186435 28.553115537559968 25.697812462440034 0 -1 0
606 0 1 17.13208663364204 28.55308101489708 14.276713232995824 0 -1 0
607 0 1 17.132327015822266 28.55305646886162 17.132327015822263 0 -1 0
608 0 1 17.132376217058393 28.553036779564273 19.987627022890678 0 -1 0
609 0 1 17.132080382791344 28.55304816066141 22.842671056847035 0 -1 0
610 0 1 17.131800791769418 28.55309963142685 25.697828368573155 0 -1 0
706 0 1 19.98732466195918 28.55308578593474 14.276681876452322 0 -1 0
707 0 1 19.987627022890678 28.55303677956427 17.132376217058393 0 -1 0
708 0 1 19.988427452707707 28.5529203461142 19.988427452707704 0 -1 0
709 0 1 19.98809967635949 28.55286061536534 22.84325474778631 0 -1 0
806 0 1 22.842537440351222 28.553099305664514 14.276598098204152 0 -1 0
807 0 1 22.84267105684704 28.55304816066141 17.13208038279134 0 -1 0
808 0 1 22.843254747786315 28.552860615365343 19.988099676359493 0 -1 0
61 0 1 28.55309963142685 17.131800791769418 28.55309963142685 -1 0 -1
91 0 1 28.511980458259274 25.73894754174073 28.511980458259277 -1 0 -1
151 0 1 2.8552705596487775 14.276598098204152 28.553099305664514 0 0 -1
901 0 1 25.738947541740725 28.511980458259277 28.511980458259274 0 -1 -1
161 0 1 2.855136943152963 17.132080382791344 28.55304816066141 0 0 -1
171 0 1 2.8545532522136883 19.98809967635949 28.552860615365343 0 0 -1
181 0 1 2.851669640802765 22.846138359197237 28.552698565073104 0 0 -1
251 0 1 5.710483338040823 14.276681876452322 28.55308578593474 0 0 -1
261 0 1 5.7101809771093235 17.13237621705839 28.553036779564273 0 0 -1
271 0 1 5.709380547292295 19.988427452707707 28.552920346114202 0 0 -1
281 0 1 5.709708323640511 22.84325474778631 28.552860615365343 0 0 -1
351 0 1 8.56572136635796 14.27671323299582 28.55308101489708 0 0 -1
361 0 1 8.565480984177736 17.132327015822263 28.55305646886162 0 0 -1
371 0 1 8.565431782941609 19.987627022890678 28.553036779564273 0 0 -1
381 0 1 8.565727617208656 22.84267105684704 28.55304816066141 0 0 -1
391 0 1 8.566007208230582 25.697828368573152 28.55309963142685 0 0 -1
601 0 1 17.131800791769418 28.55309963142685 28.55309963142685 0 -1 -1
451 0 1 11.421136371279516 14.276671628720486 28.553082736100123 0 0 -1
461 0 1 11.42109476700418 17.13208663364204 28.553081014897078 0 0 -1
471 0 1 11.42112612354768 19.98732466195918 28.55308578593474 0 0 -1
481 0 1 11.421209901795848 22.842537440351222 28.553099305664514 0 0 -1
501 0 1 14.276538071186435 28.553115537559968 28.553115537559968 0 -1 -1
491 0 1 11.421269928813567 25.697812462440034 28.553115537559968 0 0 -1
551 0 1 14.276671628720486 14.276671628720486 28.553082736100126 0 0 -1
561 0 1 14.27671323299582 17.13208663364204 28.553081014897078 0 0 -1
571 0 1 14.276681876452322 19.98732466195918 28.55308578593474 0 0 -1
401 0 1 11.421269928813565 28.553115537559968 28.553115537559968 0 -1 -1
581 0 1 14.276598098204152 22.842537440351222 28.553099305664514 0 0 -1
591 0 1 14.276538071186435 25.697812462440034 28.553115537559968 0 0 -1
651 0 1 17.13208663364204 14.276713232995824 28.55308101489708 0 0 -1
661 0 1 17.132327015822266 17.132327015822263 28.553056468861616 0 0 -1
301 0 1 8.566007208230582 28.55309963142685 28.55309963142685 0 -1 -1
671 0 1 17.132376217058393 19.987627022890678 28.55303677956427 0 0 -1
681 0 1 17.132080382791344 22.84267105684704 28.55304816066141 0 0 -1
691 0 1 17.131800791769418 25.697828368573152 28.553099631426853 0 0 -1
751 0 1 19.987324661959182 14.276681876452322 28.55308578593474 0 0 -1
761 0 1 19.987627022890678 17.132376217058393 28.55303677956427 0 0 -1
771 0 1 19.988427452707707 19.988427452707707 28.552920346114202 0 0 -1
781 0 1 19.988099676359493 22.84325474778631 28.552860615365343 0 0 -1
851 0 1 22.842537440351222 14.276598098204152 28.553099305664514 0 0 -1
861 0 1 22.84267105684704 17.132080382791344 28.55304816066141 0 0 -1
871 0 1 22.84325474778631 19.98809967635949 28.552860615365343 0 0 -1
1 0 1 28.511980458259274 28.511980458259277 28.511980458259277 -1 -1 -1
881 0 1 22.846138359197237 22.846138359197237 28.552698565073104 0 0 -1
961 0 1 25.697828368573152 17.131800791769418 28.553099631426853 0 0 -1
991 0 1 25.73894754174073 25.73894754174073 28.511980458259274 0 0 -1

Velocities

1945 0 0 0
2 0 0 0
3 0 0 0
1944 0 0 0
1943 0 0 0
11 0 0 0
12 0 0 0
13 0 0 0
14 0 0 0
15 0 0 0
21 0 0 0
22 0 0 0
23 0 0 0
24 0 0 0
25 0 0 0
1813 0 0 0
32 0 0 0
33 0 0 0
34 0 0 0
35 0 0 0
1812 0 0 0
42 0 0 0
43 0 0 0
44 0 0 0
45 0 0 0
101 0 0 0
1942 0 0 0
1941 0 0 0
1935 0 0 0
1934 0 0 0
1811 0 0 0
112 0 0 0
113 0 0 0
114 0 0 0
115 0 0 0
1805 0 0 0
122 0 0 0
123 0 0 0
124 0 0 0
125 0 0 0
1804 0 0 0
132 0 0 0
133 0 0 0
134 0 0 0
135 0 0 0
1803 0 0 0
142 0 0 0
143 0 0 0
144 0 0 0
145 0 0 0
201 0 0 0
1933 0 0 0
1932 0 0 0
1931 0 0 0
1925 0 0 0
1802 0 0 0
212 0 0 0
213 0 0 0
214 0 0 0
215 0 0 0
1801 0 0 0
222 0 0 0
223 0 0 0
224 0 0 0
225 0 0 0
1745 0 0 0
232 0 0 0
233 0 0 0
234 0 0 0
235 0 0 0
1744 0 0 0
242 0 0 0
243 0 0 0
244 0 0 0
245 0 0 0
1924 0 0 0
1923 0 0 0
1922 0 0 0
1921 0 0 0
1915 0 0 0
1743 0 0 0
312 0 0 0
313 0 0 0
314 0 0 0
315 0 0 0
1742 0 0 0
322 0 0 0
323 0 0 0
324 0 0 0
325 0 0 0
1741 0 0 0
332 0 0 0
333 0 0 0
334 0 0 0
335 0 0 0
1735 0 0 0
342 0 0 0
343 0 0 0
344 0 0 0
345 0 0 0
1914 0 0 0
1913 0 0 0
1912 0 0 0
1911 0 0 0
1905 0 0 0
1734 0 0 0
412 0 0 0
413 0 0 0
414 0 0 0
415 0 0 0
1733 0 0 0
422 0 0 0
423 0 0 0
424 0 0 0
425 0 0 0
1732 0 0 0
432 0 0 0
433 0 0 0
434 0 0 0
435 0 0 0
1731 0 0 0
442 0 0 0
443 0 0 0
444 0 0 0
445 0 0 0
1904 0 0 0
1903 0 0 0
1902 0 0 0
1901 0 0 0
1845 0 0 0
1725 0 0 0
512 0 0 0
513 0 0 0
514 0 0 0
515 0 0 0
1724 0 0 0
522 0 0 0
523 0 0 0
524 0 0 0
525 0 0 0
1723 0 0 0
532 0 0 0
533 0 0 0
534 0 0 0
535 0 0 0
1722 0 0 0
542 0 0 0
543 0 0 0
544 0 0 0
545 0 0 0
1844 0 0 0
1843 0 0 0
1842 0 0 0
1841 0 0 0
1835 0 0 0
1721 0 0 0
612 0 0 0
613 0 0 0
614 0 0 0
615 0 0 0
1715 0 0 0
622 0 0 0
623 0 0 0
624 0 0 0
625 0 0 0
1714 0 0 0
632 0 0 0
633 0 0 0
634 0 0 0
635 0 0 0
1713 0 0 0
642 0 0 0
643 0 0 0
644 0 0 0
645 0 0 0
701 0 0 0
1834 0 0 0
1833 0 0 0
1832 0 0 0
1831 0 0 0
1712 0 0 0
712 0 0 0
713 0 0 0
714 0 0 0
715 0 0 0
1711 0 0 0
722 0 0 0
723 0 0 0
724 0 0 0
725 0 0 0
1705 0 0 0
732 0 0 0
733 0 0 0
734 0 0 0
735 0 0 0
1704 0 0 0
742 0 0 0
743 0 0 0
744 0 0 0
745 0 0 0
801 0 0 0
1825 0 0 0
1824 0 0 0
1823 0 0 0
1822 0 0 0
1703 0 0 0
812 0 0 0
813 0 0 0
814 0 0 0
815 0 0 0
1702 0 0 0
822 0 0 0
823 0 0 0
824 0 0 0
825 0 0 0
1701 0 0 0
832 0 0 0
833 0 0 0
834 0 0 0
835 0 0 0
1645 0 0 0
842 0 0 0
843 0 0 0
844 0 0 0
845 0 0 0
1821 0 0 0
902 0 0 0
903 0 0 0
1815 0 0 0
1814 0 0 0
911 0 0 0
912 0 0 0
913 0 0 0
914 0 0 0
915 0 0 0
921 0 0 0
922 0 0 0
923 0 0 0
924 0 0 0
925 0 0 0
1644 0 0 0
932 0 0 0
933 0 0 0
934 0 0 0
935 0 0 0
1643 0 0 0
942 0 0 0
943 0 0 0
944 0 0 0
945 0 0 0
1001 0 0 0
1002 0 0 0
1003 0 0 0
1004 0 0 0
1005 0 0 0
1011 0 0 0
1012 0 0 0
1013 0 0 0
1014 0 0 0
1015 0 0 0
1021 0 0 0
1022 0 0 0
1023 0 0 0
1024 0 0 0
1025 0 0 0
1031 0 0 0
1032 0 0 0
1033 0 0 0
1034 0 0 0
1035 0 0 0
1041 0 0 0
1042 0 0 0
1043 0 0 0
1044 0 0 0
1045 0 0 0
1101 0 0 0
1102 0 0 0
1103 0 0 0
1104 0 0 0
1105 0 0 0
1111 0 0 0
1112 0 0 0
1113 0 0 0
1114 0 0 0
1115 0 0 0
1121 0 0 0
1122 0 0 0
1123 0 0 0
1124 0 0 0
1125 0 0 0
1131 0 0 0
1132 0 0 0
1133 0 0 0
1134 0 0 0
1135 0 0 0
1141 0 0 0
1142 0 0 0
1143 0 0 0
1144 0 0 0
1145 0 0 0
1201 0 0 0
1202 0 0 0
1203 0 0 0
1204 0 0 0
1205 0 0 0
1211 0 0 0
1212 0 0 0
1213 0 0 0
1214 0 0 0
1215 0 0 0
1221 0 0 0
1222 0 0 0
1223 0 0 0
1224 0 0 0
1225 0 0 0
1231 0 0 0
1232 0 0 0
1233 0 0 0
1234 0 0 0
1235 0 0 0
1241 0 0 0
1242 0 0 0
1243 0 0 0
1244 0 0 0
1245 0 0 0
1301 0 0 0
1302 0 0 0
1303 0 0 0
1304 0 0 0
1305 0 0 0
1311 0 0 0
1312 0 0 0
1313 0 0 0
1314 0 0 0
1315 0 0 0
1321 0 0 0
1322 0 0 0
1323 0 0 0
1324 0 0 0
1325 0 0 0
1331 0 0 0
1332 0 0 0
1333 0 0 0
1334 0 0 0
1335 0 0 0
1341 0 0 0
1342 0 0 0
1343 0 0 0
1344 0 0 0
1345 0 0 0
1401 0 0 0
1402 0 0 0
1403 0 0 0
1404 0 0 0
1405 0 0 0
1411 0 0 0
1412 0 0 0
1413 0 0 0
1414 0 0 0
1415 0 0 0
1421 0 0 0
1422 0 0 0
1423 0 0 0
1424 0 0 0
1425 0 0 0
1431 0 0 0
1432 0 0 0
1433 0 0 0
1434 0 0 0
1435 0 0 0
1441 0 0 0
1442 0 0 0
1443 0 0 0
1444 0 0 0
1445 0 0 0
1501 0 0 0
1502 0 0 0
1503 0 0 0
1504 0 0 0
1505 0 0 0
1511 0 0 0
1512 0 0 0
1513 0 0 0
1514 0 0 0
1515 0 0 0
1521 0 0 0
1522 0 0 0
1523 0 0 0
1524 0 0 0
1525 0 0 0
1531 0 0 0
1532 0 0 0
1533 0 0 0
1534 0 0 0
1535 0 0 0
1541 0 0 0
1542 0 0 0
1543 0 0 0
1544 0 0 0
1545 0 0 0
1601 0 0 0
1602 0 0 0
1603 0 0 0
1604 0 0 0
1605 0 0 0
1611 0 0 0
1612 0 0 0
1613 0 0 0
1614 0 0 0
1615 0 0 0
1621 0 0 0
1622 0 0 0
1623 0 0 0
1624 0 0 0
1625 0 0 0
1631 0 0 0
1632 0 0 0
1633 0 0 0
1634 0 0 0
1635 0 0 0
1641 0 0 0
1642 0 0 0
1950 0 0 0
1949 0 0 0
8 0 0 0
9 0 0 0
1948 0 0 0
16 0 0 0
17 0 0 0
18 0 0 0
19 0 0 0
20 0 0 0
26 0 0 0
27 0 0 0
28 0 0 0
29 0 0 0
30 0 0 0
36 0 0 0
37 0 0 0
38 0 0 0
39 0 0 0
40 0 0 0
46 0 0 0
47 0 0 0
48 0 0 0
49 0 0 0
50 0 0 0
1947 0 0 0
1946 0 0 0
1940 0 0 0
1939 0 0 0
110 0 0 0
116 0 0 0
117 0 0 0
118 0 0 0
119 0 0 0
120 0 0 0
126 0 0 0
127 0 0 0
128 0 0 0
129 0 0 0
130 0 0 0
136 0 0 0
137 0 0 0
138 0 0 0
139 0 0 0
140 0 0 0
146 0 0 0
147 0 0 0
148 0 0 0
149 0 0 0
150 0 0 0
1938 0 0 0
1937 0 0 0
1936 0 0 0
1930 0 0 0
210 0 0 0
216 0 0 0
217 0 0 0
218 0 0 0
219 0 0 0
220 0 0 0
226 0 0 0
227 0 0 0
228 0 0 0
229 0 0 0
230 0 0 0
236 0 0 0
237 0 0 0
238 0 0 0
239 0 0 0
240 0 0 0
246 0 0 0
247 0 0 0
248 0 0 0
249 0 0 0
250 0 0 0
1929 0 0 0
1928 0 0 0
1927 0 0 0
1926 0 0 0
1920 0 0 0
316 0 0 0
317 0 0 0
318 0 0 0
319 0 0 0
320 0 0 0
326 0 0 0
327 0 0 0
328 0 0 0
329 0 0 0
330 0 0 0
336 0 0 0
337 0 0 0
338 0 0 0
339 0 0 0
340 0 0 0
346 0 0 0
347 0 0 0
348 0 0 0
349 0 0 0
350 0 0 0
1919 0 0 0
1918 0 0 0
1917 0 0 0
1916 0 0 0
1910 0 0 0
416 0 0 0
417 0 0 0
418 0 0 0
419 0 0 0
420 0 0 0
426 0 0 0
427 0 0 0
428 0 0 0
429 0 0 0
430 0 0 0
436 0 0 0
437 0 0 0
438 0 0 0
439 0 0 0
440 0 0 0
446 0 0 0
447 0 0 0
448 0 0 0
449 0 0 0
450 0 0 0
1909 0 0 0
1908 0 0 0
1907 0 0 0
1906 0 0 0
1850 0 0 0
516 0 0 0
517 0 0 0
518 0 0 0
519 0 0 0
520 0 0 0
526 0 0 0
527 0 0 0
528 0 0 0
529 0 0 0
530 0 0 0
536 0 0 0
537 0 0 0
538 0 0 0
539 0 0 0
540 0 0 0
546 0 0 0
547 0 0 0
548 0 0 0
549 0 0 0
550 0 0 0
1849 0 0 0
1848 0 0 0
1847 0 0 0
1846 0 0 0
1840 0 0 0
616 0 0 0
617 0 0 0
618 0 0 0
619 0 0 0
620 0 0 0
626 0 0 0
627 0 0 0
628 0 0 0
629 0 0 0
630 0 0 0
636 0 0 0
637 0 0 0
638 0 0 0
639 0 0 0
640 0 0 0
646 0 0 0
647 0 0 0
648 0 0 0
649 0 0 0
650 0 0 0
1839 0 0 0
1838 0 0 0
1837 0 0 0
1836 0 0 0
710 0 0 0
716 0 0 0
717 0 0 0
718 0 0 0
719 0 0 0
720 0 0 0
726 0 0 0
727 0 0 0
728 0 0 0
729 0 0 0
730 0 0 0
736 0 0 0
737 0 0 0
738 0 0 0
739 0 0 0
740 0 0 0
746 0 0 0
747 0 0 0
748 0 0 0
749 0 0 0
750 0 0 0
1830 0 0 0
1829 0 0 0
1828 0 0 0
1827 0 0 0
810 0 0 0
816 0 0 0
817 0 0 0
818 0 0 0
819 0 0 0
820 0 0 0
826 0 0 0
827 0 0 0
828 0 0 0
829 0 0 0
830 0 0 0
836 0 0 0
837 0 0 0
838 0 0 0
839 0 0 0
840 0 0 0
846 0 0 0
847 0 0 0
848 0 0 0
849 0 0 0
850 0 0 0
1826 0 0 0
1820 0 0 0
908 0 0 0
909 0 0 0
1819 0 0 0
916 0 0 0
917 0 0 0
918 0 0 0
919 0 0 0
920 0 0 0
926 0 0 0
927 0 0 0
928 0 0 0
929 0 0 0
930 0 0 0
936 0 0 0
937 0 0 0
938 0 0 0
939 0 0 0
940 0 0 0
946 0 0 0
947 0 0 0
948 0 0 0
949 0 0 0
950 0 0 0
1006 0 0 0
1007 0 0 0
1008 0 0 0
1009 0 0 0
1010 0 0 0
1016 0 0 0
1017 0 0 0
1018 0 0 0
1019 0 0 0
1020 0 0 0
1026 0 0 0
1027 0 0 0
1028 0 0 0
1029 0 0 0
1030 0 0 0
1036 0 0 0
1037 0 0 0
1038 0 0 0
1039 0 0 0
1040 0 0 0
1046 0 0 0
1047 0 0 0
1048 0 0 0
1049 0 0 0
1050 0 0 0
1106 0 0 0
1107 0 0 0
1108 0 0 0
1109 0 0 0
1110 0 0 0
1116 0 0 0
1117 0 0 0
1118 0 0 0
1119 0 0 0
1120 0 0 0
1126 0 0 0
1127 0 0 0
1128 0 0 0
1129 0 0 0
1130 0 0 0
1136 0 0 0
1137 0 0 0
1138 0 0 0
1139 0 0 0
1140 0 0 0
1146 0 0 0
1147 0 0 0
1148 0 0 0
1149 0 0 0
1150 0 0 0
1206 0 0 0
1207 0 0 0
1208 0 0 0
1209 0 0 0
1210 0 0 0
1216 0 0 0
1217 0 0 0
1218 0 0 0
1219 0 0 0
1220 0 0 0
1226 0 0 0
1227 0 0 0
1228 0 0 0
1229 0 0 0
1230 0 0 0
1236 0 0 0
1237 0 0 0
1238 0 0 0
1239 0 0 0
1240 0 0 0
1246 0 0 0
1247 0 0 0
1248 0 0 0
1249 0 0 0
1250 0 0 0
1306 0 0 0
1307 0 0 0
1308 0 0 0
1309 0 0 0
1310 0 0 0
1316 0 0 0
1317 0 0 0
1318 0 0 0
1319 0 0 0
1320 0 0 0
1326 0 0 0
1327 0 0 0
1328 0 0 0
1329 0 0 0
1330 0 0 0
1336 0 0 0
1337 0 0 0
1338 0 0 0
1339 0 0 0
1340 0 0 0
1346 0 0 0
1347 0 0 0
1348 0 0 0
1349 0 0 0
1350 0 0 0
1406 0 0 0
1407 0 0 0
1408 0 0 0
1409 0 0 0
1410 0 0 0
1416 0 0 0
1417 0 0 0
1418 0 0 0
1419 0 0 0
1420 0 0 0
1426 0 0 0
1427 0 0 0
1428 0 0 0
1429 0 0 0
1430 0 0 0
1436 0 0 0
1437 0 0 0
1438 0 0 0
1439 0 0 0
1440 0 0 0
1446 0 0 0
1447 0 0 0
1448 0 0 0
1449 0 0 0
1450 0 0 0
1506 0 0 0
1507 0 0 0
1508 0 0 0
1509 0 0 0
1510 0 0 0
1516 0 0 0
1517 0 0 0
1518 0 0 0
1519 0 0 0
1520 0 0 0
1526 0 0 0
1527 0 0 0
1528 0 0 0
1529 0 0 0
1530 0 0 0
1536 0 0 0
1537 0 0 0
1538 0 0 0
1539 0 0 0
1540 0 0 0
1546 0 0 0
1547 0 0 0
1548 0 0 0
1549 0 0 0
1550 0 0 0
1606 0 0 0
1607 0 0 0
1608 0 0 0
1609 0 0 0
1610 0 0 0
1616 0 0 0
1617 0 0 0
1618 0 0 0
1619 0 0 0
1620 0 0 0
1626 0 0 0
1627 0 0 0
1628 0 0 0
1629 0 0 0
1630 0 0 0
1636 0 0 0
1637 0 0 0
1638 0 0 0
1639 0 0 0
1640 0 0 0
1646 0 0 0
1647 0 0 0
1648 0 0 0
1649 0 0 0
1650 0 0 0
1706 0 0 0
1707 0 0 0
1708 0 0 0
1709 0 0 0
1710 0 0 0
1716 0 0 0
1717 0 0 0
1718 0 0 0
1719 0 0 0
1720 0 0 0
1726 0 0 0
1727 0 0 0
1728 0 0 0
1729 0 0 0
1730 0 0 0
1736 0 0 0
1737 0 0 0
1738 0 0 0
1739 0 0 0
1740 0 0 0
1746 0 0 0
1747 0 0 0
1748 0 0 0
1749 0 0 0
1750 0 0 0
1806 0 0 0
1807 0 0 0
1808 0 0 0
1809 0 0 0
1810 0 0 0
1816 0 0 0
1817 0 0 0
1818 0 0 0
60 0 0 0
960 0 0 0
31 0 0 0
951 0 0 0
51 0 0 0
41 0 0 0
111 0 0 0
121 0 0 0
131 0 0 0
141 0 0 0
211 0 0 0
221 0 0 0
231 0 0 0
241 0 0 0
311 0 0 0
321 0 0 0
331 0 0 0
341 0 0 0
411 0 0 0
421 0 0 0
431 0 0 0
441 0 0 0
511 0 0 0
521 0 0 0
531 0 0 0
541 0 0 0
611 0 0 0
621 0 0 0
631 0 0 0
641 0 0 0
711 0 0 0
721 0 0 0
731 0 0 0
741 0 0 0
811 0 0 0
821 0 0 0
831 0 0 0
841 0 0 0
931 0 0 0
941 0 0 0
1995 0 0 0
52 0 0 0
53 0 0 0
54 0 0 0
55 0 0 0
905 0 0 0
62 0 0 0
63 0 0 0
64 0 0 0
65 0 0 0
71 0 0 0
72 0 0 0
73 0 0 0
74 0 0 0
75 0 0 0
81 0 0 0
82 0 0 0
83 0 0 0
84 0 0 0
85 0 0 0
904 0 0 0
92 0 0 0
93 0 0 0
94 0 0 0
95 0 0 0
805 0 0 0
152 0 0 0
153 0 0 0
154 0 0 0
155 0 0 0
804 0 0 0
162 0 0 0
163 0 0 0
164 0 0 0
165 0 0 0
803 0 0 0
172 0 0 0
173 0 0 0
174 0 0 0
175 0 0 0
802 0 0 0
182 0 0 0
183 0 0 0
184 0 0 0
185 0 0 0
191 0 0 0
192 0 0 0
193 0 0 0
194 0 0 0
195 0 0 0
705 0 0 0
252 0 0 0
253 0 0 0
254 0 0 0
255 0 0 0
704 0 0 0
262 0 0 0
263 0 0 0
264 0 0 0
265 0 0 0
703 0 0 0
272 0 0 0
273 0 0 0
274 0 0 0
275 0 0 0
702 0 0 0
282 0 0 0
283 0 0 0
284 0 0 0
285 0 0 0
291 0 0 0
292 0 0 0
293 0 0 0
294 0 0 0
295 0 0 0
605 0 0 0
352 0 0 0
353 0 0 0
354 0 0 0
355 0 0 0
604 0 0 0
362 0 0 0
363 0 0 0
364 0 0 0
365 0 0 0
603 0 0 0
372 0 0 0
373 0 0 0
374 0 0 0
375 0 0 0
602 0 0 0
382 0 0 0
383 0 0 0
384 0 0 0
385 0 0 0
505 0 0 0
392 0 0 0
393 0 0 0
394 0 0 0
395 0 0 0
504 0 0 0
452 0 0 0
453 0 0 0
454 0 0 0
455 0 0 0
503 0 0 0
462 0 0 0
463 0 0 0
464 0 0 0
465 0 0 0
502 0 0 0
472 0 0 0
473 0 0 0
474 0 0 0
475 0 0 0
405 0 0 0
482 0 0 0
483 0 0 0
484 0 0 0
485 0 0 0
404 0 0 0
492 0 0 0
493 0 0 0
494 0 0 0
495 0 0 0
403 0 0 0
552 0 0 0
553 0 0 0
554 0 0 0
555 0 0 0
402 0 0 0
562 0 0 0
563 0 0 0
564 0 0 0
565 0 0 0
305 0 0 0
572 0 0 0
573 0 0 0
574 0 0 0
575 0 0 0
304 0 0 0
582 0 0 0
583 0 0 0
584 0 0 0
585 0 0 0
303 0 0 0
592 0 0 0
593 0 0 0
594 0 0 0
595 0 0 0
302 0 0 0
652 0 0 0
653 0 0 0
654 0 0 0
655 0 0 0
205 0 0 0
662 0 0 0
663 0 0 0
664 0 0 0
665 0 0 0
204 0 0 0
672 0 0 0
673 0 0 0
674 0 0 0
675 0 0 0
203 0 0 0
682 0 0 0
683 0 0 0
684 0 0 0
685 0 0 0
202 0 0 0
692 0 0 0
693 0 0 0
694 0 0 0
695 0 0 0
105 0 0 0
752 0 0 0
753 0 0 0
754 0 0 0
755 0 0 0
104 0 0 0
762 0 0 0
763 0 0 0
764 0 0 0
765 0 0 0
103 0 0 0
772 0 0 0
773 0 0 0
774 0 0 0
775 0 0 0
102 0 0 0
782 0 0 0
783 0 0 0
784 0 0 0
785 0 0 0
791 0 0 0
792 0 0 0
793 0 0 0
794 0 0 0
795 0 0 0
5 0 0 0
852 0 0 0
853 0 0 0
854 0 0 0
855 0 0 0
4 0 0 0
862 0 0 0
863 0 0 0
864 0 0 0
865 0 0 0
1993 0 0 0
872 0 0 0
873 0 0 0
874 0 0 0
875 0 0 0
1992 0 0 0
882 0 0 0
883 0 0 0
884 0 0 0
885 0 0 0
891 0 0 0
892 0 0 0
893 0 0 0
894 0 0 0
895 0 0 0
1994 0 0 0
952 0 0 0
953 0 0 0
954 0 0 0
955 0 0 0
1991 0 0 0
962 0 0 0
963 0 0 0
964 0 0 0
965 0 0 0
971 0 0 0
972 0 0 0
973 0 0 0
974 0 0 0
975 0 0 0
981 0 0 0
982 0 0 0
983 0 0 0
984 0 0 0
985 0 0 0
1985 0 0 0
992 0 0 0
993 0 0 0
994 0 0 0
995 0 0 0
1051 0 0 0
1052 0 0 0
1053 0 0 0
1054 0 0 0
1055 0 0 0
1061 0 0 0
1062 0 0 0
1063 0 0 0
1064 0 0 0
1065 0 0 0
1071 0 0 0
1072 0 0 0
1073 0 0 0
1074 0 0 0
1075 0 0 0
1081 0 0 0
1082 0 0 0
1083 0 0 0
1084 0 0 0
1085 0 0 0
1091 0 0 0
1092 0 0 0
1093 0 0 0
1094 0 0 0
1095 0 0 0
1151 0 0 0
1152 0 0 0
1153 0 0 0
1154 0 0 0
1155 0 0 0
1161 0 0 0
1162 0 0 0
1163 0 0 0
1164 0 0 0
1165 0 0 0
1171 0 0 0
1172 0 0 0
1173 0 0 0
1174 0 0 0
1175 0 0 0
1181 0 0 0
1182 0 0 0
1183 0 0 0
1184 0 0 0
1185 0 0 0
1191 0 0 0
1192 0 0 0
1193 0 0 0
1194 0 0 0
1195 0 0 0
1251 0 0 0
1252 0 0 0
1253 0 0 0
1254 0 0 0
1255 0 0 0
1261 0 0 0
1262 0 0 0
1263 0 0 0
1264 0 0 0
1265 0 0 0
1271 0 0 0
1272 0 0 0
1273 0 0 0
1274 0 0 0
1275 0 0 0
1281 0 0 0
1282 0 0 0
1283 0 0 0
1284 0 0 0
1285 0 0 0
1291 0 0 0
1292 0 0 0
1293 0 0 0
1294 0 0 0
1295 0 0 0
1351 0 0 0
1352 0 0 0
1353 0 0 0
1354 0 0 0
1355 0 0 0
1361 0 0 0
1362 0 0 0
1363 0 0 0
1364 0 0 0
1365 0 0 0
1371 0 0 0
1372 0 0 0
1373 0 0 0
1374 0 0 0
1375 0 0 0
1381 0 0 0
1382 0 0 0
1383 0 0 0
1384 0 0 0
1385 0 0 0
1391 0 0 0
1392 0 0 0
1393 0 0 0
1394 0 0 0
1395 0 0 0
1451 0 0 0
1452 0 0 0
1453 0 0 0
1454 0 0 0
1455 0 0 0
1461 0 0 0
1462 0 0 0
1463 0 0 0
1464 0 0 0
1465 0 0 0
1471 0 0 0
1472 0 0 0
1473 0 0 0
1474 0 0 0
1475 0 0 0
1481 0 0 0
1482 0 0 0
1483 0 0 0
1484 0 0 0
1485 0 0 0
1491 0 0 0
1492 0 0 0
1493 0 0 0
1494 0 0 0
1495 0 0 0
1551 0 0 0
1552 0 0 0
1553 0 0 0
1554 0 0 0
1555 0 0 0
1561 0 0 0
1562 0 0 0
1563 0 0 0
1564 0 0 0
1565 0 0 0
1571 0 0 0
1572 0 0 0
1573 0 0 0
1574 0 0 0
1575 0 0 0
1581 0 0 0
1582 0 0 0
1583 0 0 0
1584 0 0 0
1585 0 0 0
1591 0 0 0
1592 0 0 0
1593 0 0 0
1594 0 0 0
1595 0 0 0
1651 0 0 0
1652 0 0 0
1653 0 0 0
1654 0 0 0
1655 0 0 0
1661 0 0 0
1662 0 0 0
1663 0 0 0
1664 0 0 0
1665 0 0 0
1671 0 0 0
1672 0 0 0
1673 0 0 0
1674 0 0 0
1675 0 0 0
1681 0 0 0
1682 0 0 0
1683 0 0 0
1684 0 0 0
1685 0 0 0
1691 0 0 0
1692 0 0 0
1693 0 0 0
1694 0 0 0
1695 0 0 0
1751 0 0 0
1752 0 0 0
1753 0 0 0
1754 0 0 0
1755 0 0 0
1761 0 0 0
1762 0 0 0
1763 0 0 0
1764 0 0 0
1765 0 0 0
1771 0 0 0
1772 0 0 0
1773 0 0 0
1774 0 0 0
1775 0 0 0
1781 0 0 0
1782 0 0 0
1783 0 0 0
1784 0 0 0
1785 0 0 0
1791 0 0 0
1792 0 0 0
1793 0 0 0
1794 0 0 0
1795 0 0 0
1851 0 0 0
1852 0 0 0
1853 0 0 0
1854 0 0 0
1855 0 0 0
1861 0 0 0
1862 0 0 0
1863 0 0 0
1864 0 0 0
1865 0 0 0
1871 0 0 0
1872 0 0 0
1873 0 0 0
1874 0 0 0
1875 0 0 0
1881 0 0 0
1882 0 0 0
1883 0 0 0
1884 0 0 0
1885 0 0 0
1891 0 0 0
1892 0 0 0
1893 0 0 0
1894 0 0 0
1895 0 0 0
1951 0 0 0
1952 0 0 0
1953 0 0 0
1954 0 0 0
1955 0 0 0
1961 0 0 0
1962 0 0 0
1963 0 0 0
1964 0 0 0
1965 0 0 0
1971 0 0 0
1972 0 0 0
1973 0 0 0
1974 0 0 0
1975 0 0 0
1981 0 0 0
1982 0 0 0
1983 0 0 0
1984 0 0 0
96 0 0 0
996 0 0 0
6 0 0 0
906 0 0 0
56 0 0 0
57 0 0 0
58 0 0 0
59 0 0 0
1999 0 0 0
66 0 0 0
67 0 0 0
68 0 0 0
69 0 0 0
70 0 0 0
76 0 0 0
77 0 0 0
78 0 0 0
79 0 0 0
80 0 0 0
86 0 0 0
87 0 0 0
88 0 0 0
89 0 0 0
90 0 0 0
910 0 0 0
97 0 0 0
98 0 0 0
99 0 0 0
100 0 0 0
156 0 0 0
157 0 0 0
158 0 0 0
159 0 0 0
160 0 0 0
166 0 0 0
167 0 0 0
168 0 0 0
169 0 0 0
170 0 0 0
176 0 0 0
177 0 0 0
178 0 0 0
179 0 0 0
180 0 0 0
186 0 0 0
187 0 0 0
188 0 0 0
189 0 0 0
190 0 0 0
196 0 0 0
197 0 0 0
198 0 0 0
199 0 0 0
200 0 0 0
256 0 0 0
257 0 0 0
258 0 0 0
259 0 0 0
260 0 0 0
266 0 0 0
267 0 0 0
268 0 0 0
269 0 0 0
270 0 0 0
276 0 0 0
277 0 0 0
278 0 0 0
279 0 0 0
280 0 0 0
286 0 0 0
287 0 0 0
288 0 0 0
289 0 0 0
290 0 0 0
296 0 0 0
297 0 0 0
298 0 0 0
299 0 0 0
300 0 0 0
356 0 0 0
357 0 0 0
358 0 0 0
359 0 0 0
360 0 0 0
366 0 0 0
367 0 0 0
368 0 0 0
369 0 0 0
370 0 0 0
376 0 0 0
377 0 0 0
378 0 0 0
379 0 0 0
380 0 0 0
386 0 0 0
387 0 0 0
388 0 0 0
389 0 0 0
390 0 0 0
396 0 0 0
397 0 0 0
398 0 0 0
399 0 0 0
400 0 0 0
456 0 0 0
457 0 0 0
458 0 0 0
459 0 0 0
460 0 0 0
466 0 0 0
467 0 0 0
468 0 0 0
469 0 0 0
470 0 0 0
476 0 0 0
477 0 0 0
478 0 0 0
479 0 0 0
480 0 0 0
486 0 0 0
487 0 0 0
488 0 0 0
489 0 0 0
490 0 0 0
496 0 0 0
497 0 0 0
498 0 0 0
499 0 0 0
500 0 0 0
556 0 0 0
557 0 0 0
558 0 0 0
559 0 0 0
560 0 0 0
566 0 0 0
567 0 0 0
568 0 0 0
569 0 0 0
570 0 0 0
576 0 0 0
577 0 0 0
578 0 0 0
579 0 0 0
580 0 0 0
586 0 0 0
587 0 0 0
588 0 0 0
589 0 0 0
590 0 0 0
596 0 0 0
597 0 0 0
598 0 0 0
599 0 0 0
600 0 0 0
656 0 0 0
657 0 0 0
658 0 0 0
659 0 0 0
660 0 0 0
666 0 0 0
667 0 0 0
668 0 0 0
669 0 0 0
670 0 0 0
676 0 0 0
677 0 0 0
678 0 0 0
679 0 0 0
680 0 0 0
686 0 0 0
687 0 0 0
688 0 0 0
689 0 0 0
690 0 0 0
696 0 0 0
697 0 0 0
698 0 0 0
699 0 0 0
700 0 0 0
756 0 0 0
757 0 0 0
758 0 0 0
759 0 0 0
760 0 0 0
766 0 0 0
767 0 0 0
768 0 0 0
769 0 0 0
770 0 0 0
776 0 0 0
777 0 0 0
778 0 0 0
779 0 0 0
780 0 0 0
786 0 0 0
787 0 0 0
788 0 0 0
789 0 0 0
790 0 0 0
796 0 0 0
797 0 0 0
798 0 0 0
799 0 0 0
800 0 0 0
856 0 0 0
857 0 0 0
858 0 0 0
859 0 0 0
860 0 0 0
866 0 0 0
867 0 0 0
868 0 0 0
869 0 0 0
870 0 0 0
876 0 0 0
877 0 0 0
878 0 0 0
879 0 0 0
880 0 0 0
886 0 0 0
887 0 0 0
888 0 0 0
889 0 0 0
890 0 0 0
896 0 0 0
897 0 0 0
898 0 0 0
899 0 0 0
900 0 0 0
956 0 0 0
957 0 0 0
958 0 0 0
959 0 0 0
1998 0 0 0
966 0 0 0
967 0 0 0
968 0 0 0
969 0 0 0
970 0 0 0
976 0 0 0
977 0 0 0
978 0 0 0
979 0 0 0
980 0 0 0
986 0 0 0
987 0 0 0
988 0 0 0
989 0 0 0
990 0 0 0
907 0 0 0
997 0 0 0
998 0 0 0
999 0 0 0
1000 0 0 0
1056 0 0 0
1057 0 0 0
1058 0 0 0
1059 0 0 0
1060 0 0 0
1066 0 0 0
1067 0 0 0
1068 0 0 0
1069 0 0 0
1070 0 0 0
1076 0 0 0
1077 0 0 0
1078 0 0 0
1079 0 0 0
1080 0 0 0
1086 0 0 0
1087 0 0 0
1088 0 0 0
1089 0 0 0
1090 0 0 0
1096 0 0 0
1097 0 0 0
1098 0 0 0
1099 0 0 0
1100 0 0 0
1156 0 0 0
1157 0 0 0
1158 0 0 0
1159 0 0 0
1160 0 0 0
1166 0 0 0
1167 0 0 0
1168 0 0 0
1169 0 0 0
1170 0 0 0
1176 0 0 0
1177 0 0 0
1178 0 0 0
1179 0 0 0
1180 0 0 0
1186 0 0 0
1187 0 0 0
1188 0 0 0
1189 0 0 0
1190 0 0 0
1196 0 0 0
1197 0 0 0
1198 0 0 0
1199 0 0 0
1200 0 0 0
1256 0 0 0
1257 0 0 0
1258 0 0 0
1259 0 0 0
1260 0 0 0
1266 0 0 0
1267 0 0 0
1268 0 0 0
1269 0 0 0
1270 0 0 0
1276 0 0 0
1277 0 0 0
1278 0 0 0
1279 0 0 0
1280 0 0 0
1286 0 0 0
1287 0 0 0
1288 0 0 0
1289 0 0 0
1290 0 0 0
1296 0 0 0
1297 0 0 0
1298 0 0 0
1299 0 0 0
1300 0 0 0
1356 0 0 0
1357 0 0 0
1358 0 0 0
1359 0 0 0
1360 0 0 0
1366 0 0 0
1367 0 0 0
1368 0 0 0
1369 0 0 0
1370 0 0 0
1376 0 0 0
1377 0 0 0
1378 0 0 0
1379 0 0 0
1380 0 0 0
1386 0 0 0
1387 0 0 0
1388 0 0 0
1389 0 0 0
1390 0 0 0
1396 0 0 0
1397 0 0 0
1398 0 0 0
1399 0 0 0
1400 0 0 0
1456 0 0 0
1457 0 0 0
1458 0 0 0
1459 0 0 0
1460 0 0 0
1466 0 0 0
1467 0 0 0
1468 0 0 0
1469 0 0 0
1470 0 0 0
1476 0 0 0
1477 0 0 0
1478 0 0 0
1479 0 0 0
1480 0 0 0
1486 0 0 0
1487 0 0 0
1488 0 0 0
1489 0 0 0
1490 0 0 0
1496 0 0 0
1497 0 0 0
1498 0 0 0
1499 0 0 0
1500 0 0 0
1556 0 0 0
1557 0 0 0
1558 0 0 0
1559 0 0 0
1560 0 0 0
1566 0 0 0
1567 0 0 0
1568 0 0 0
1569 0 0 0
1570 0 0 0
1576 0 0 0
1577 0 0 0
1578 0 0 0
1579 0 0 0
1580 0 0 0
1586 0 0 0
1587 0 0 0
1588 0 0 0
1589 0 0 0
1590 0 0 0
1596 0 0 0
1597 0 0 0
1598 0 0 0
1599 0 0 0
1600 0 0 0
1656 0 0 0
1657 0 0 0
1658 0 0 0
1659 0 0 0
1660 0 0 0
1666 0 0 0
1667 0 0 0
1668 0 0 0
1669 0 0 0
1670 0 0 0
1676 0 0 0
1677 0 0 0
1678 0 0 0
1679 0 0 0
1680 0 0 0
1686 0 0 0
1687 0 0 0
1688 0 0 0
1689 0 0 0
1690 0 0 0
1696 0 0 0
1697 0 0 0
1698 0 0 0
1699 0 0 0
1700 0 0 0
1756 0 0 0
1757 0 0 0
1758 0 0 0
1759 0 0 0
1760 0 0 0
1766 0 0 0
1767 0 0 0
1768 0 0 0
1769 0 0 0
1770 0 0 0
1776 0 0 0
1777 0 0 0
1778 0 0 0
1779 0 0 0
1780 0 0 0
1786 0 0 0
1787 0 0 0
1788 0 0 0
1789 0 0 0
1790 0 0 0
1796 0 0 0
1797 0 0 0
1798 0 0 0
1799 0 0 0
1800 0 0 0
1856 0 0 0
1857 0 0 0
1858 0 0 0
1859 0 0 0
1860 0 0 0
1866 0 0 0
1867 0 0 0
1868 0 0 0
1869 0 0 0
1870 0 0 0
1876 0 0 0
1877 0 0 0
1878 0 0 0
1879 0 0 0
1880 0 0 0
1886 0 0 0
1887 0 0 0
1888 0 0 0
1889 0 0 0
1890 0 0 0
1896 0 0 0
1897 0 0 0
1898 0 0 0
1899 0 0 0
1900 0 0 0
1956 0 0 0
1957 0 0 0
1958 0 0 0
1959 0 0 0
1960 0 0 0
1966 0 0 0
1967 0 0 0
1968 0 0 0
1969 0 0 0
1970 0 0 0
1976 0 0 0
1977 0 0 0
1978 0 0 0
1979 0 0 0
1980 0 0 0
1986 0 0 0
1987 0 0 0
1988 0 0 0
1989 0 0 0
1990 0 0 0
1996 0 0 0
1997 0 0 0
809 0 0 0
7 0 0 0
10 0 0 0
106 0 0 0
107 0 0 0
108 0 0 0
109 0 0 0
206 0 0 0
207 0 0 0
208 0 0 0
209 0 0 0
306 0 0 0
307 0 0 0
308 0 0 0
309 0 0 0
310 0 0 0
406 0 0 0
407 0 0 0
408 0 0 0
409 0 0 0
410 0 0 0
506 0 0 0
507 0 0 0
508 0 0 0
509 0 0 0
510 0 0 0
606 0 0 0
607 0 0 0
608 0 0 0
609 0 0 0
610 0 0 0
706 0 0 0
707 0 0 0
708 0 0 0
709 0 0 0
806 0 0 0
807 0 0 0
808 0 0 0
61 0 0 0
91 0 0 0
151 0 0 0
901 0 0 0
161 0 0 0
171 0 0 0
181 0 0 0
251 0 0 0
261 0 0 0
271 0 0 0
281 0 0 0
351 0 0 0
361 0 0 0
371 0 0 0
381 0 0 0
391 0 0 0
601 0 0 0
451 0 0 0
461 0 0 0
471 0 0 0
481 0 0 0
501 0 0 0
491 0 0 0
551 0 0 0
561 0 0 0
571 0 0 0
401 0 0 0
581 0 0 0
591 0 0 0
651 0 0 0
661 0 0 0
301 0 0 0
671 0 0 0
681 0 0 0
691 0 0 0
751 0 0 0
761 0 0 0
771 0 0 0
781 0 0 0
851 0 0 0
861 0 0 0
871 0 0 0
1 0 0 0
881 0 0 0
961 0 0 0
991 0 0 0
