Generated by pymatgen.io.lammps.data.LammpsData

326  atoms

  2  atom types

0.000000 57.106240  xlo xhi
0.000000 57.106240  ylo yhi
0.000000 57.106240  zlo zhi
0.000000 0.000000 0.000000  xy xz yz

Masses

1  55.847000
2  30.973762

Atoms

2989   1  1 19.975336 25.713690 25.687812
2990   1  1 19.974334 25.712698 28.545882
2991   1  1 19.974700 25.713940 31.407537
3009   1  1 19.979074 28.577631 25.691677
3010   1  1 19.978660 28.575013 28.545855
3011   1  1 19.978022 28.575569 31.406842
3012   1  1 19.975865 28.572792 34.274582
3029   1  1 19.980810 31.437106 25.694487
3030   1  1 19.981477 31.435359 28.551328
3031   1  1 19.983841 31.436418 31.416481
3032   1  1 19.984421 31.437076 34.264516
3050   1  1 19.979544 34.292241 28.550387
3051   1  1 19.977152 34.296424 31.407947
3052   1  1 19.971248 34.301087 34.276896
3369   1  1 22.832063 22.859128 25.686772
3370   1  1 22.835031 22.862054 28.549502
3371   1  1 22.837426 22.863823 31.409441
3388   1  1 22.831804 25.712461 22.833618
3389   1  1 22.806529 25.689950 25.664267
3390   1  1 22.820518 25.702200 28.549725
3391   1  1 22.823392 25.705848 31.414755
3392   1  1 22.834804 25.719684 34.266000
3408   1  1 22.833952 28.575257 22.836673
3409   1  1 22.814942 28.573015 25.674684
3410   1  1 22.829553 28.571943 28.549653
3411   1  1 22.801791 28.551265 31.376728
3412   1  1 22.773279 28.507859 34.328880
3413   1  1 22.830314 28.573603 37.126341
3428   1  1 22.837003 31.435323 22.838479
3429   1  1 22.824547 31.444529 25.682083
3430   1  1 22.850954 31.435057 28.569504
3431   1  1 22.762230 31.435122 31.422487
3432   1  1 22.895258 31.441866 34.206632
3433   1  1 22.839539 31.437264 37.119019
3448   1  1 22.839576 34.291122 22.840247
3449   1  1 22.836827 34.289389 25.696413
3450   1  1 22.854407 34.278221 28.568189
3451   1  1 22.800323 34.326837 31.373603
3452   1  1 22.752735 34.382220 34.350746
3453   1  1 22.827334 34.301695 37.133271
3469   1  1 22.836679 37.147934 25.695400
3470   1  1 22.839397 37.148654 28.552282
3471   1  1 22.833353 37.152979 31.406794
3472   1  1 22.828444 37.160725 34.276571
3769   1  1 25.697947 22.865511 25.694149
3770   1  1 25.694440 22.868215 28.547240
3771   1  1 25.697898 22.869137 31.405435
3772   1  1 25.698157 22.868651 34.263463
3788   1  1 25.697543 25.719615 22.839747
3789   1  1 25.709608 25.723280 25.697573
3790   1  1 25.676705 25.716793 28.532033
3791   1  1 25.693591 25.715897 31.412104
3792   1  1 25.702690 25.725596 34.260602
3793   1  1 25.700885 25.719159 37.123543
3807   1  1 25.696368 28.576452 19.988185
3808   1  1 25.694024 28.572614 22.842271
3809   1  1 25.677060 28.557229 25.689521
3810   1  1 25.428512 28.472609 28.437672
3811   1  1 25.717168 28.614500 31.375216
3812   1  1 25.718131 28.538814 34.307237
3813   1  1 25.698126 28.577508 37.122605
3827   1  1 25.697666 31.432045 19.988883
3828   1  1 25.698509 31.430447 22.843468
3829   1  1 25.697995 31.435037 25.685870
3830   1  1 25.707947 31.400358 28.480473
3831   1  1 25.062892 31.509561 32.000404
3832   1  1 25.666797 31.448762 34.337464
3833   1  1 25.687836 31.439054 37.119185
3848   1  1 25.697682 34.289130 22.842449
3849   1  1 25.698064 34.286467 25.698801
3850   1  1 25.673099 34.304363 28.529974
3851   1  1 25.679640 34.314020 31.434656
3852   1  1 25.734056 34.332480 34.310118
3853   1  1 25.699022 34.296227 37.126089
3869   1  1 25.695756 37.146152 25.696423
3870   1  1 25.696356 37.146770 28.551724
3871   1  1 25.696068 37.149068 31.412885
3872   1  1 25.701187 37.153432 34.272088
3890   1  1 25.697632 39.999639 28.554651
3891   1  1 25.697043 40.000215 31.410632
4169   1  1 28.554107 22.864800 25.693654
4170   1  1 28.559672 22.868181 28.547373
4171   1  1 28.554649 22.868839 31.405337
4172   1  1 28.554090 22.868243 34.263085
4188   1  1 28.554047 25.718750 22.838764
4189   1  1 28.544519 25.717779 25.692200
4190   1  1 28.586773 25.715990 28.531521
4191   1  1 28.560507 25.719221 31.410416
4192   1  1 28.555798 25.728024 34.256224
4193   1  1 28.558538 25.720277 37.122587
4207   1  1 28.554860 28.576377 19.987932
4208   1  1 28.560267 28.571948 22.841405
4209   1  1 28.589873 28.553477 25.685676
4210   1  1 27.217501 29.387800 29.405982
4211   1  1 28.516542 28.645524 31.361272
4212   1  1 28.554797 28.575959 34.265789
4213   1  1 28.558378 28.580430 37.122072
4227   1  1 28.553474 31.432178 19.988571
4228   1  1 28.554638 31.430995 22.842430
4229   1  1 28.559921 31.436172 25.689419
4230   1  1 28.526853 31.395105 28.590930
4231   1  1 28.758068 31.456748 31.438139
4232   1  1 28.557261 31.447649 34.257848
4233   1  1 28.559252 31.438730 37.121534
4248   1  1 28.554261 34.289818 22.841841
4249   1  1 28.559810 34.290393 25.696546
4250   1  1 28.591064 34.325705 28.517507
4251   1  1 28.586815 34.307478 31.436853
4252   1  1 28.547027 34.288369 34.260447
4253   1  1 28.559051 34.293248 37.124896
4269   1  1 28.554524 37.147227 25.695524
4270   1  1 28.559069 37.148235 28.550750
4271   1  1 28.560998 37.148464 31.412625
4272   1  1 28.558105 37.151366 34.268131
4290   1  1 28.554269 39.999717 28.554633
4291   1  1 28.555356 40.000192 31.410669
4569   1  1 31.420218 22.857412 25.686263
4570   1  1 31.417961 22.861622 28.550493
4571   1  1 31.414675 22.863470 31.411023
4588   1  1 31.420600 25.711167 22.831249
4589   1  1 31.455589 25.679154 25.654006
4590   1  1 31.441277 25.696754 28.552132
4591   1  1 31.429295 25.707320 31.423174
4592   1  1 31.409628 25.726615 34.260901
4608   1  1 31.418383 28.575508 22.835226
4609   1  1 31.443272 28.575708 25.668803
4610   1  1 31.449095 28.555084 28.528203
4611   1  1 31.423186 28.578724 31.407451
4612   1  1 31.421125 28.570941 34.272980
4613   1  1 31.413391 28.578748 37.121733
4628   1  1 31.415137 31.436369 22.836926
4629   1  1 31.432996 31.448601 25.677097
4630   1  1 31.425837 31.436527 28.549288
4631   1  1 31.426001 31.438227 31.409841
4632   1  1 31.423553 31.435836 34.274014
4633   1  1 31.415877 31.437127 37.122897
4648   1  1 31.411710 34.291522 22.839571
4649   1  1 31.414121 34.287853 25.696415
4650   1  1 31.425601 34.302089 28.542035
4651   1  1 31.425895 34.301302 31.411772
4652   1  1 31.433181 34.309120 34.285024
4653   1  1 31.418548 34.298264 37.125466
4669   1  1 31.415766 37.150730 25.692504
4670   1  1 31.417379 37.150894 28.551895
4671   1  1 31.419112 37.151651 31.412766
4672   1  1 31.421115 37.153785 34.275625
4989   1  1 34.279780 25.711048 25.685720
4990   1  1 34.275277 25.714836 28.551378
4991   1  1 34.273261 25.718064 31.412477
5009   1  1 34.275624 28.576406 25.688980
5010   1  1 34.272198 28.573742 28.548024
5011   1  1 34.271119 28.578027 31.409684
5012   1  1 34.271406 28.577755 34.269205
5029   1  1 34.274211 31.437713 25.691730
5030   1  1 34.271802 31.435720 28.551800
5031   1  1 34.269662 31.436676 31.410587
5032   1  1 34.272102 31.436783 34.270554
5050   1  1 34.272447 34.295132 28.551851
5051   1  1 34.272508 34.296189 31.411666
5052   1  1 34.273889 34.298704 34.273605
10589  1  1 18.552865 27.147184 27.119944
10590  1  1 18.553196 27.147881 29.978569
10591  1  1 18.552731 27.149033 32.837304
10609  1  1 18.554570 30.006969 27.122373
10610  1  1 18.556219 30.007430 29.980921
10611  1  1 18.555413 30.005951 32.839881
10629  1  1 18.554218 32.863364 27.124053
10630  1  1 18.555370 32.863155 29.981930
10969  1  1 21.398991 24.280823 27.118016
10970  1  1 21.401481 24.283237 29.980524
10971  1  1 21.404485 24.286653 32.841015
10988  1  1 21.397049 27.143397 24.254861
10989  1  1 21.402298 27.140524 27.115248
10990  1  1 21.393483 27.132611 29.968786
10991  1  1 21.394401 27.135702 32.832844
10992  1  1 21.387002 27.128184 35.716882
11008  1  1 21.401499 30.008707 24.259295
11009  1  1 21.409959 30.009611 27.122511
11010  1  1 21.402609 30.001812 29.971358
11011  1  1 21.405911 29.986778 32.853432
11012  1  1 21.411830 30.022176 35.691739
11028  1  1 21.404780 32.867607 24.262964
11029  1  1 21.412942 32.862971 27.129154
11030  1  1 21.406264 32.866287 29.975221
11031  1  1 21.404944 32.890999 32.854863
11032  1  1 21.406816 32.849964 35.697108
11049  1  1 21.412890 35.716037 27.127843
11050  1  1 21.396877 35.733099 29.966559
11051  1  1 21.389997 35.741659 32.834710
11349  1  1 24.266006 21.438631 27.120821
11350  1  1 24.267795 21.440336 29.978905
11368  1  1 24.269699 24.288671 24.263089
11369  1  1 24.257238 24.285575 27.110652
11370  1  1 24.263935 24.289542 29.978465
11371  1  1 24.266513 24.291919 32.838669
11387  1  1 24.265654 27.146504 21.413045
11388  1  1 24.256581 27.136329 24.259912
11389  1  1 24.195060 27.083754 27.058231
11390  1  1 24.242554 27.113735 30.003606
11391  1  1 24.264836 27.142991 32.832976
11392  1  1 24.268533 27.132700 35.708056
11407  1  1 24.267553 30.004458 21.414849
11408  1  1 24.262407 30.003591 24.263899
11409  1  1 24.226535 30.020612 27.079155
11410  1  1 24.304105 30.022890 30.008332
11411  1  1 24.159106 29.716256 32.951152
11412  1  1 24.250369 29.988515 35.697040
11413  1  1 24.265867 30.007184 38.546959
11427  1  1 24.269525 32.861041 21.414997
11428  1  1 24.267157 32.863334 24.266034
11429  1  1 24.262711 32.858707 27.120866
11430  1  1 24.336350 32.817640 30.027476
11431  1  1 24.124593 33.217156 32.990504
11432  1  1 24.246736 32.894214 35.701872
11433  1  1 24.264995 32.867046 38.549267
11448  1  1 24.268278 35.716270 24.270682
11449  1  1 24.259096 35.723431 27.118432
11450  1  1 24.269874 35.724552 29.982418
11451  1  1 24.250043 35.750254 32.856768
11452  1  1 24.270401 35.741352 35.713894
11469  1  1 24.268143 38.573875 27.125009
11470  1  1 24.268505 38.574442 29.981997
11471  1  1 24.266044 38.576640 32.840433
11749  1  1 27.125980 21.440438 27.123266
11750  1  1 27.125995 21.442941 29.976652
11751  1  1 27.125665 21.441747 32.834452
11767  1  1 27.125345 24.292204 21.411321
11768  1  1 27.124868 24.288743 24.263203
11769  1  1 27.128064 24.297619 27.124801
11770  1  1 27.128112 24.296943 29.969790
11771  1  1 27.127232 24.295391 32.833942
11772  1  1 27.128045 24.297003 35.689270
11787  1  1 27.125811 27.148646 21.414582
11788  1  1 27.127862 27.149348 24.271088
11789  1  1 27.135652 27.201941 27.177607
11790  1  1 27.129691 27.075608 29.961251
11791  1  1 27.129424 27.163614 32.815032
11792  1  1 27.139287 27.139252 35.703617
11793  1  1 27.127238 27.151961 38.547776
11807  1  1 27.126158 30.001882 21.416885
11808  1  1 27.129561 29.993352 24.269730
11809  1  1 27.141822 29.970047 27.053622
11810  1  1 26.688227 31.020193 30.693015
11811  1  1 27.094195 30.018477 32.900516
11812  1  1 27.131917 30.009299 35.702484
11813  1  1 27.125120 30.010829 38.545479
11827  1  1 27.125706 32.860122 21.415905
11828  1  1 27.128017 32.862032 24.268661
11829  1  1 27.139870 32.860291 27.130488
11830  1  1 27.165554 33.074354 29.936783
11831  1  1 27.090034 32.828783 32.794656
11832  1  1 27.133231 32.866714 35.699662
11833  1  1 27.125508 32.863677 38.547456
11848  1  1 27.125710 35.715876 24.271248
11849  1  1 27.124760 35.723550 27.119433
11850  1  1 27.130955 35.727245 29.980912
11851  1  1 27.130218 35.727261 32.839186
11852  1  1 27.141600 35.734999 35.709443
11869  1  1 27.125798 38.572880 27.125857
11870  1  1 27.127060 38.572117 29.982557
11871  1  1 27.127162 38.575112 32.838420
11872  1  1 27.127028 38.578678 35.696681
12149  1  1 29.985771 21.438259 27.120936
12150  1  1 29.984112 21.440074 29.979229
12168  1  1 29.982046 24.285839 24.260365
12169  1  1 29.998995 24.283558 27.109102
12170  1  1 29.991489 24.289372 29.980542
12171  1  1 29.984656 24.292831 32.837717
12187  1  1 29.985998 27.146077 21.412170
12188  1  1 30.000258 27.132852 24.256278
12189  1  1 30.086008 27.056773 27.031409
12190  1  1 30.024908 27.109875 30.011587
12191  1  1 29.974465 27.166497 32.819874
12192  1  1 29.984643 27.150114 35.692516
12207  1  1 29.984147 30.004674 21.414011
12208  1  1 29.992614 30.005685 24.261870
12209  1  1 30.031289 30.037527 27.076315
12210  1  1 30.018219 29.982944 29.949590
12211  1  1 30.002739 29.984332 32.858477
12212  1  1 29.984924 30.009596 35.692094
12213  1  1 29.984925 30.008904 38.547916
12227  1  1 29.981802 32.861502 21.414296
12228  1  1 29.985300 32.863762 24.265223
12229  1  1 29.983848 32.849008 27.129145
12230  1  1 30.004261 32.889800 29.955412
12231  1  1 30.020874 32.893220 32.869998
12232  1  1 29.989929 32.869639 35.695541
12233  1  1 29.986679 32.865964 38.549354
12248  1  1 29.984494 35.717844 24.269044
12249  1  1 29.997733 35.731350 27.111557
12250  1  1 29.995144 35.728102 29.982753
12251  1  1 29.998786 35.730428 32.851833
12252  1  1 29.985097 35.722704 35.697108
12269  1  1 29.984100 38.574694 27.124357
12270  1  1 29.985415 38.574322 29.982309
12271  1  1 29.987140 38.575948 32.840933
12569  1  1 32.856252 24.278235 27.118421
12570  1  1 32.851381 24.283298 29.985173
12571  1  1 32.846489 24.287878 32.843986
12588  1  1 32.856906 27.142945 24.252012
12589  1  1 32.858239 27.132314 27.107018
12590  1  1 32.850257 27.141481 29.982804
12591  1  1 32.845097 27.150362 32.838964
12592  1  1 32.844151 27.146702 35.697654
12608  1  1 32.852560 30.009840 24.256367
12609  1  1 32.851324 30.008265 27.114532
12610  1  1 32.847243 30.003874 29.976708
12611  1  1 32.845522 30.006579 32.841382
12612  1  1 32.846203 30.006091 35.699359
12628  1  1 32.848260 32.869364 24.260469
12629  1  1 32.847591 32.865200 27.122646
12630  1  1 32.846396 32.868608 29.980091
12631  1  1 32.847749 32.869399 32.844191
12632  1  1 32.849534 32.867510 35.702553
12649  1  1 32.846785 35.724558 27.119817
12650  1  1 32.847919 35.725840 29.980779
12651  1  1 32.850571 35.728454 32.843389
12990  1  1 35.697001 27.148367 29.980950
12991  1  1 35.697299 27.150313 32.838404
13009  1  1 35.697226 30.006401 27.122637
13010  1  1 35.695662 30.006337 29.980624
13011  1  1 35.696238 30.007500 32.839112
13029  1  1 35.697819 32.864086 27.124365
13030  1  1 35.696501 32.864865 29.981874
13031  1  1 35.696649 32.865939 32.840494
16000  1  1 28.906195 28.428527 28.393024

