Generated by pymatgen.io.lammps.data.LammpsData

211  atoms

  2  atom types

0.000000 28.553120  xlo xhi
0.000000 28.553120  ylo yhi
0.000000 28.553120  zlo zhi
0.000000 0.000000 0.000000  xy xz yz

Masses

1  55.847000
2  30.973762

Atoms

2     2  1  0.004096  0.010770  2.854300
3     1  1  0.001239  0.001013  5.711356
11    2  1  0.004096  2.854293  0.010777
12    2  1 28.531530  2.830122  2.830129
13    1  1 28.551869  2.853344  5.708183
21    1  1  0.001239  5.711350  0.001019
22    1  1 28.551869  5.708176  2.853351
1812  1  1 24.274538  4.274832  4.274839
101   2  1  2.863418  0.005031  0.005037
1811  2  1 24.268602  4.281213  1.429212
112   2  1  2.855368  2.854417  2.854424
1803  1  1 24.270585  1.427223  7.137687
201   1  1  5.711563  0.000871  0.000878
1802  2  1 24.268602  1.429206  4.281220
1801  2  1 24.315271  1.382537  1.382544
1921  1  1 27.125989  7.138401  1.427232
1912  1  1 27.125821  4.276160  4.276167
1911  2  1 27.128109  4.279887  1.426809
1903  1  1 27.125989  1.427225  7.138407
1902  2  1 27.128109  1.426802  4.279894
1901  2  1 27.070319  1.341091  1.341098
1712  1  1 21.423668  4.274140  4.274147
712   1  1 19.990236  2.853363  2.853369
1711  1  1 21.422976  4.274832  1.423277
801   2  1 22.797895  0.001781  0.001788
812   1  1 22.861540  2.836268  2.836275
813   1  1 22.844445  2.853363  5.707579
1702  1  1 21.422976  1.423270  4.274839
822   1  1 22.844445  5.707572  2.853369
1701  2  1 21.416595  1.429206  1.429212
1821  1  1 24.270585  7.137680  1.427229
902   2  1 25.696027  0.001781  2.899920
911   2  1 25.696027  2.899913  0.001788
912   2  1 25.706425  2.838842  2.838849
913   1  1 25.699323  2.852460  5.707571
922   1  1 25.699323  5.707564  2.852467
923   1  1 25.698612  5.706484  5.706490
1001  2  1  1.431452  1.428437  1.428443
1002  2  1  1.428226  1.430616  4.282051
1011  2  1  1.428226  4.282044  1.430623
1012  1  1  1.419070  4.273518  4.273525
1101  2  1  4.285949  1.429743  1.429750
1601  1  1 18.560128  1.427223  1.427229
8     1  1 28.552581  0.000633 19.987178
9     2  1 28.552158  0.002754 22.845692
19    2  1  0.002852  2.855990 22.843535
20    2  1  0.000672  2.859216 25.697142
30    2  1  0.001979  5.713713 25.695836
110   2  1  2.852123  0.002754 25.698777
119   1  1  2.845754  2.846834 22.852061
120   2  1  2.854280  2.855990 25.694963
1930  1  1 27.126227  7.139327 27.124707
210   1  1  5.710637  0.000633 25.698354
1920  2  1 27.130387  4.291182 27.120548
1919  2  1 27.124278  4.283334 24.270596
1910  2  1 27.116764  1.492764 27.134170
1909  2  1 27.136126  1.431860 24.271286
1908  1  1 27.126368  1.429003 21.414229
710   1  1 19.986458  0.001013 25.696576
720   1  1 19.989632  2.853344 25.699065
1830  1  1 24.270583  7.138401 27.124946
810   2  1 22.843515  0.010770 25.693719
819   2  1 22.843391  2.854417 22.842447
820   2  1 22.867686  2.830122 25.719404
830   1  1 22.844464  5.708176 25.699065
1820  2  1 24.271006  4.279887 27.122825
908   1  1 25.696937  0.000871 19.986252
909   2  1 25.692777  0.005031 22.834397
1819  2  1 24.267192  4.282044 24.269589
919   2  1 25.698886  2.854983 22.842245
920   2  1 25.687038  2.854293 25.693719
930   1  1 25.696795  5.711350 25.696576
1008  1  1  1.425580  1.426514 21.417403
1009  2  1  1.402358  1.406175 24.295457
1010  2  1  1.426529  1.431860 27.114809
1019  2  1  1.426653  4.283132 24.271162
1020  2  1  1.427219  4.283334 27.126657
1109  1  1  4.280412  1.426514 24.272234
1110  1  1  4.283586  1.429003 27.124566
1610  1  1 18.559407  1.427225 27.124946
1709  2  1 21.415764  1.430616 24.269589
1710  2  1 21.417921  1.426802 27.122825
1719  1  1 21.424290  4.273518 24.278745
1720  1  1 21.421648  4.276160 27.125113
1808  2  1 24.268065  1.429743 21.411866
1809  2  1 24.269371  1.428437 24.266363
1810  2  1 24.356717  1.341091 27.180616
109   1  1  2.848396  0.000466 22.849419
111   2  1  2.855570  2.854983 28.552049
821   1  1 22.845348  5.707564 28.551611
811   2  1 22.858966  2.838842 28.544510
711   1  1 19.990244  2.852460 28.551611
721   1  1 19.991324  5.706484 28.552323
921   1  1 25.698192  5.713223 28.552742
903   1  1 25.698192 28.552736  5.713230
71    1  1 28.552581 19.987171  0.000640
81    2  1 28.552158 22.845685  0.002760
82    2  1  0.002852 22.843528  2.855997
92    2  1  0.000672 25.697136  2.859223
93    2  1  0.001979 25.695829  5.713720
803   1  1 22.845348 28.551605  5.707571
802   2  1 22.858966 28.544503  2.838849
182   1  1  2.845754 22.852054  2.846841
191   2  1  2.852123 25.698770  0.002760
192   2  1  2.854280 25.694956  2.855997
703   1  1 19.991324 28.552316  5.706490
702   1  1 19.990244 28.551605  2.852467
291   1  1  5.710637 25.698347  0.000640
1982  2  1 27.124278 24.270589  4.283341
1981  2  1 27.136126 24.271279  1.431867
1971  1  1 27.126368 21.414222  1.429010
1893  1  1 24.270583 27.124939  7.138407
102   2  1  2.855570 28.552042  2.854990
791   1  1 19.986458 25.696569  0.001019
792   1  1 19.989632 25.699059  2.853351
1892  2  1 24.271006 27.122819  4.279894
1891  2  1 24.356717 27.180609  1.341098
1993  1  1 27.126227 27.124701  7.139334
1992  2  1 27.130387 27.120541  4.291189
882   2  1 22.843391 22.842440  2.854424
891   2  1 22.843515 25.693712  0.010777
892   2  1 22.867686 25.719398  2.830129
893   1  1 22.844464 25.699059  5.708183
1882  2  1 24.267192 24.269582  4.282051
1881  2  1 24.269371 24.266356  1.428443
1991  2  1 27.116764 27.134164  1.492770
971   1  1 25.696937 19.986245  0.000878
981   2  1 25.692777 22.834390  0.005037
982   2  1 25.698886 22.842238  2.854990
992   2  1 25.687038 25.693712  2.854300
993   1  1 25.696795 25.696569  5.711356
1071  1  1  1.425580 21.417396  1.426520
1081  2  1  1.402358 24.295450  1.406181
1082  2  1  1.426653 24.271155  4.283139
1091  2  1  1.426529 27.114802  1.431867
1092  2  1  1.427219 27.126650  4.283341
1181  1  1  4.280412 24.272228  1.426520
1191  1  1  4.283586 27.124560  1.429010
1691  1  1 18.559407 27.124939  1.427232
1781  2  1 21.415764 24.269582  1.430623
1782  1  1 21.424290 24.278738  4.273525
1791  2  1 21.417921 27.122819  1.426809
1792  1  1 21.421648 27.125107  4.276167
1871  2  1 24.268065 21.411859  1.429750
181   1  1  2.848396 22.849412  0.000472
1999  2  1 27.127137 27.123791 24.225666
80    1  1 28.552578 19.987892 25.698356
89    1  1 28.548626 22.850740 22.850747
90    2  1  0.001441 22.844359 25.696373
910   2  1 25.706399 28.544529 25.632815
98    1  1 28.552578 25.698350 19.987899
99    2  1  0.001441 25.696367 22.844366
100   2  1 28.507893 25.743035 25.743042
189   1  1  2.846376 22.851432 22.851439
190   1  1  2.847068 22.850740 25.702309
199   1  1  2.847068 25.702302 22.850747
200   2  1  2.853449 25.696367 25.696373
300   1  1  5.709916 25.698350 25.698356
991   2  1 25.706399 25.632809 28.544535
901   2  1 26.411582 27.839346 27.839353
800   2  1 19.984095 25.695829 25.695836
889   1  1 22.850974 22.852054 22.852061
890   2  1 22.841818 22.843528 25.694963
899   2  1 22.841818 25.694956 22.843535
900   2  1 22.838592 25.697136 25.697142
1998  1  1 27.124971 27.125957 21.412356
980   1  1 25.697175 19.987171 25.698354
989   1  1 25.697342 22.849412 22.849419
990   2  1 25.695054 22.845685 25.698777
881   2  1 22.842825 22.842238 28.552049
998   1  1 25.697175 25.698347 19.987178
999   2  1 25.695054 25.698770 22.845692
1000  2  1 25.752845 25.784481 25.784488
1079  1  1  1.425598 21.418000 24.272216
1080  1  1  1.424696 21.418008 27.127094
1088  1  1  1.425598 24.272210 21.418007
1089  1  1  1.408504 24.289304 24.289311
1090  2  1  1.411078 24.286730 27.134196
1098  1  1  1.424696 27.127088 21.418015
1099  2  1  1.411078 27.134189 24.286736
1100  2  1  1.472149 27.123791 27.123798
1180  1  1  4.278720 21.419088 27.126383
1189  1  1  4.279808 24.272210 24.272216
1190  1  1  4.279800 24.273112 27.127094
1198  1  1  4.278720 27.126376 21.419095
1199  1  1  4.279800 27.127088 24.273119
1200  1  1  4.285459 27.125957 27.125963
1700  1  1 18.558481 27.124701 27.124707
1789  2  1 21.414676 24.271155 24.271162
1790  2  1 21.414474 24.270589 27.126657
1799  2  1 21.414474 27.126650 24.270596
1800  2  1 21.406626 27.120541 27.120548
1879  1  1 24.271294 21.417396 24.272234
1880  1  1 24.268805 21.414222 27.124566
1888  1  1 24.271294 24.272228 21.417403
1889  2  1 24.291633 24.295450 24.295457
1890  2  1 24.265948 24.271279 27.114809
1898  1  1 24.268805 27.124560 21.414229
1899  2  1 24.265948 27.114802 24.271286
1900  2  1 24.205044 27.134164 27.134170
1978  1  1 27.124552 21.419088 21.419095
1979  1  1 27.123840 21.418008 24.273119
1980  1  1 27.124971 21.412349 27.125963
1988  1  1 27.123840 24.273112 21.418015
1989  2  1 27.116739 24.286730 24.286736
1990  2  1 27.127137 24.225659 27.123798
809   2  1 22.842825 28.552042 22.842245
1     2  1  0.064999 28.544529 28.544535
10    2  1 28.466447 28.498083 25.784488
91    2  1 28.466447 25.784481 28.498090
701   1  1 19.984585 28.552736 28.552742

