Generated by pymatgen.io.lammps.data.LammpsData

16000  atoms

    2  atom types

0.000000 57.106240  xlo xhi
0.000000 57.106240  ylo yhi
0.000000 57.106240  zlo zhi
0.000000 0.000000 0.000000  xy xz yz

Masses

1  55.847000
2  30.973762

Atoms

1      0  1  0.000045  0.012911  2.894258
2      0  1  0.000045  0.012911  5.713022
3      0  1  0.000045  0.012911  8.566256
4      0  1  0.000045  0.012911 11.421407
5      0  1  0.000045  0.012911 14.276714
6      0  1  0.000045  0.012911 17.132027
7      0  1  0.000045  0.012911 19.987325
8      0  1  0.000045  0.012911 22.842604
9      0  1  0.000045  0.012911 25.697866
10     0  1  0.000045  0.012911 28.553121
11     0  1  0.000045  0.012911 31.408375
12     0  1  0.000045  0.012911 34.263638
13     0  1  0.000045  0.012911 37.118916
14     0  1  0.000045  0.012911 39.974214
15     0  1  0.000045  0.012911 42.829528
16     0  1  0.000045  0.012911 45.684835
17     0  1  0.000045  0.012911 48.539986
18     0  1  0.000045  0.012911 51.393219
19     0  1  0.000045  0.012911 54.211983
20     0  1  0.000149  2.906949  0.000001
21     0  1  0.000135  2.861444  2.848714
22     0  1  0.000139  2.867194  5.709664
23     0  1  0.000146  2.867875  8.565826
24     0  1  0.000152  2.867994 11.421289
25     0  1  0.000157  2.868054 14.276663
26     0  1  0.000160  2.868093 17.132001
27     0  1  0.000163  2.868120 19.987311
28     0  1  0.000164  2.868139 22.842596
29     0  1  0.000164  2.868150 25.697863
30     0  1  0.000164  2.868154 28.553121
31     0  1  0.000164  2.868150 31.408378
32     0  1  0.000164  2.868139 34.263645
33     0  1  0.000163  2.868120 37.118930
34     0  1  0.000160  2.868093 39.974240
35     0  1  0.000157  2.868054 42.829578
36     0  1  0.000152  2.867994 45.684952
37     0  1  0.000146  2.867875 48.540416
38     0  1  0.000139  2.867194 51.396577
39     0  1  0.000135  2.861444 54.257527
40     0  1  0.000210  5.725577  0.000001
41     0  1  0.000211  5.722236  2.854440
42     0  1  0.000219  5.721035  5.708427
43     0  1  0.000231  5.722547  8.565158
44     0  1  0.000242  5.723016 11.421012
45     0  1  0.000250  5.723192 14.276530
46     0  1  0.000256  5.723287 17.131930
47     0  1  0.000258  5.723349 19.987271
48     0  1  0.000259  5.723390 22.842575
49     0  1  0.000260  5.723414 25.697854
50     0  1  0.000260  5.723422 28.553121
51     0  1  0.000260  5.723414 31.408387
52     0  1  0.000259  5.723390 34.263666
53     0  1  0.000258  5.723349 37.118970
54     0  1  0.000256  5.723287 39.974312
55     0  1  0.000250  5.723192 42.829712
56     0  1  0.000242  5.723016 45.685229
57     0  1  0.000231  5.722547 48.541083
58     0  1  0.000219  5.721035 51.397815
59     0  1  0.000211  5.722236 54.251801
60     0  1  0.000260  8.578689  0.000001
61     0  1  0.000263  8.578274  2.855092
62     0  1  0.000274  8.577650  5.709884
63     0  1  0.000289  8.577574  8.565015
64     0  1  0.000302  8.578052 11.420762
65     0  1  0.000311  8.578339 14.276366
66     0  1  0.000316  8.578503 17.131831
67     0  1  0.000317  8.578608 19.987214
68     0  1  0.000316  8.578677 22.842544
69     0  1  0.000315  8.578717 25.697840
70     0  1  0.000314  8.578730 28.553121
71     0  1  0.000315  8.578717 31.408401
72     0  1  0.000316  8.578677 34.263698
73     0  1  0.000317  8.578608 37.119028
74     0  1  0.000316  8.578503 39.974410
75     0  1  0.000311  8.578339 42.829876
76     0  1  0.000302  8.578052 45.685479
77     0  1  0.000289  8.577574 48.541227
78     0  1  0.000274  8.577650 51.396357
79     0  1  0.000263  8.578274 54.251149
80     0  1  0.000284 11.433763  0.000001
81     0  1  0.000288 11.433660  2.855176
82     0  1  0.000300 11.433427  5.710288
83     0  1  0.000315 11.433248  8.565408
84     0  1  0.000327 11.433325 11.420747
85     0  1  0.000334 11.433559 14.276259
86     0  1  0.000336 11.433757 17.131740
87     0  1  0.000333 11.433901 19.987153
88     0  1  0.000329 11.433999 22.842509
89     0  1  0.000326 11.434057 25.697825
90     0  1  0.000324 11.434076 28.553121
91     0  1  0.000326 11.434057 31.408417
92     0  1  0.000329 11.433999 34.263733
93     0  1  0.000333 11.433901 37.119088
94     0  1  0.000336 11.433757 39.974501
95     0  1  0.000334 11.433559 42.829982
96     0  1  0.000327 11.433325 45.685495
97     0  1  0.000315 11.433248 48.540833
98     0  1  0.000300 11.433427 51.395953
99     0  1  0.000288 11.433660 54.251065
100    0  1  0.000283 14.289050  0.000001
101    0  1  0.000287 14.289012  2.855200
102    0  1  0.000297 14.288917  5.710397
103    0  1  0.000310 14.288819  8.565603
104    0  1  0.000319 14.288801 11.420876
105    0  1  0.000323 14.288905 14.276256
106    0  1  0.000321 14.289071 17.131691
107    0  1  0.000315 14.289226 19.987106
108    0  1  0.000307 14.289345 22.842476
109    0  1  0.000301 14.289418 25.697809
110    0  1  0.000299 14.289443 28.553121
111    0  1  0.000301 14.289418 31.408432
112    0  1  0.000307 14.289345 34.263765
113    0  1  0.000315 14.289226 37.119136
114    0  1  0.000321 14.289071 39.974550
115    0  1  0.000323 14.288905 42.829985
116    0  1  0.000319 14.288801 45.685365
117    0  1  0.000310 14.288819 48.540638
118    0  1  0.000297 14.288917 51.395845
119    0  1  0.000287 14.289012 54.251042
120    0  1  0.000259 17.144400  0.000001
121    0  1  0.000262 17.144384  2.855206
122    0  1  0.000271 17.144344  5.710429
123    0  1  0.000280 17.144299  8.565679
124    0  1  0.000286 17.144285 11.420968
125    0  1  0.000286 17.144334 14.276308
126    0  1  0.000281 17.144445 17.131691
127    0  1  0.000272 17.144580 19.987083
128    0  1  0.000263 17.144700 22.842454
129    0  1  0.000256 17.144780 25.697796
130    0  1  0.000253 17.144808 28.553121
131    0  1  0.000256 17.144780 31.408445
132    0  1  0.000263 17.144700 34.263788
133    0  1  0.000272 17.144580 37.119158
134    0  1  0.000281 17.144445 39.974550
135    0  1  0.000286 17.144334 42.829933
136    0  1  0.000286 17.144285 45.685273
137    0  1  0.000280 17.144299 48.540562
138    0  1  0.000271 17.144344 51.395813
139    0  1  0.000262 17.144384 54.251035
140    0  1  0.000219 19.999784  0.000001
141    0  1  0.000221 19.999778  2.855206
142    0  1  0.000227 19.999761  5.710438
143    0  1  0.000233 19.999744  8.565708
144    0  1  0.000236 19.999743 11.421017
145    0  1  0.000234 19.999775 14.276356
146    0  1  0.000227 19.999848 17.131716
147    0  1  0.000218 19.999949 19.987083
148    0  1  0.000209 20.000050 22.842443
149    0  1  0.000202 20.000124 25.697787
150    0  1  0.000199 20.000151 28.553121
151    0  1  0.000202 20.000124 31.408454
152    0  1  0.000209 20.000050 34.263799
153    0  1  0.000218 19.999949 37.119158
154    0  1  0.000227 19.999848 39.974525
155    0  1  0.000234 19.999775 42.829885
156    0  1  0.000236 19.999743 45.685224
157    0  1  0.000233 19.999744 48.540533
158    0  1  0.000227 19.999761 51.395803
159    0  1  0.000221 19.999778 54.251035
160    0  1  0.000167 22.855190  0.000001
161    0  1  0.000168 22.855187  2.855205
162    0  1  0.000172 22.855181  5.710440
163    0  1  0.000175 22.855177  8.565721
164    0  1  0.000176 22.855182 11.421043
165    0  1  0.000173 22.855205 14.276388
166    0  1  0.000167 22.855251 17.131741
167    0  1  0.000160 22.855317 19.987093
168    0  1  0.000153 22.855389 22.842440
169    0  1  0.000147 22.855445 25.697782
170    0  1  0.000145 22.855466 28.553121
171    0  1  0.000147 22.855445 31.408459
172    0  1  0.000153 22.855389 34.263801
173    0  1  0.000160 22.855317 37.119149
174    0  1  0.000167 22.855251 39.974500
175    0  1  0.000173 22.855205 42.829853
176    0  1  0.000176 22.855182 45.685199
177    0  1  0.000175 22.855177 48.540520
178    0  1  0.000172 22.855181 51.395801
179    0  1  0.000168 22.855187 54.251036
180    0  1  0.000107 25.710608  0.000001
181    0  1  0.000108 25.710607  2.855204
182    0  1  0.000110 25.710605  5.710441
183    0  1  0.000111 25.710605  8.565726
184    0  1  0.000111 25.710609 11.421055
185    0  1  0.000109 25.710621 14.276406
186    0  1  0.000106 25.710644 17.131757
187    0  1  0.000102 25.710677 19.987102
188    0  1  0.000098 25.710714 22.842441
189    0  1  0.000095 25.710744 25.697780
190    0  1  0.000094 25.710756 28.553121
191    0  1  0.000095 25.710744 31.408462
192    0  1  0.000098 25.710714 34.263801
193    0  1  0.000102 25.710677 37.119140
194    0  1  0.000106 25.710644 39.974484
195    0  1  0.000109 25.710621 42.829836
196    0  1  0.000111 25.710609 45.685186
197    0  1  0.000111 25.710605 48.540515
198    0  1  0.000110 25.710605 51.395801
199    0  1  0.000108 25.710607 54.251037
200    0  1  0.000045 28.566031  0.000001
201    0  1  0.000045 28.566031  2.855204
202    0  1  0.000045 28.566031  5.710441
203    0  1  0.000045 28.566031  8.565728
204    0  1  0.000045 28.566031 11.421059
205    0  1  0.000045 28.566031 14.276411
206    0  1  0.000045 28.566031 17.131763
207    0  1  0.000045 28.566031 19.987105
208    0  1  0.000045 28.566031 22.842441
209    0  1  0.000045 28.566031 25.697779
210    0  1  0.000045 28.566031 28.553121
211    0  1  0.000045 28.566031 31.408462
212    0  1  0.000045 28.566031 34.263800
213    0  1  0.000045 28.566031 37.119136
214    0  1  0.000045 28.566031 39.974479
215    0  1  0.000045 28.566031 42.829830
216    0  1  0.000045 28.566031 45.685182
217    0  1  0.000045 28.566031 48.540513
218    0  1  0.000045 28.566031 51.395801
219    0  1  0.000045 28.566031 54.251038
220    0  1 57.106222 31.421454  0.000001
221    0  1 57.106221 31.421455  2.855204
222    0  1 57.106220 31.421456  5.710441
223    0  1 57.106218 31.421457  8.565726
224    0  1 57.106218 31.421452 11.421055
225    0  1 57.106220 31.421440 14.276406
226    0  1 57.106223 31.421417 17.131757
227    0  1 57.106228 31.421384 19.987102
228    0  1 57.106232 31.421347 22.842441
229    0  1 57.106235 31.421317 25.697780
230    0  1 57.106236 31.421306 28.553121
231    0  1 57.106235 31.421317 31.408462
232    0  1 57.106232 31.421347 34.263801
233    0  1 57.106228 31.421384 37.119140
234    0  1 57.106223 31.421417 39.974484
235    0  1 57.106220 31.421440 42.829836
236    0  1 57.106218 31.421452 45.685186
237    0  1 57.106218 31.421457 48.540515
238    0  1 57.106220 31.421456 51.395801
239    0  1 57.106221 31.421455 54.251037
240    0  1 57.106163 34.276871  0.000001
241    0  1 57.106161 34.276874  2.855205
242    0  1 57.106158 34.276880  5.710440
243    0  1 57.106154 34.276885  8.565721
244    0  1 57.106154 34.276880 11.421043
245    0  1 57.106156 34.276857 14.276388
246    0  1 57.106162 34.276811 17.131741
247    0  1 57.106169 34.276744 19.987093
248    0  1 57.106177 34.276672 22.842440
249    0  1 57.106182 34.276616 25.697782
250    0  1 57.106184 34.276595 28.553121
251    0  1 57.106182 34.276616 31.408459
252    0  1 57.106177 34.276672 34.263801
253    0  1 57.106169 34.276744 37.119149
254    0  1 57.106162 34.276811 39.974500
255    0  1 57.106156 34.276857 42.829853
256    0  1 57.106154 34.276880 45.685199
257    0  1 57.106154 34.276885 48.540520
258    0  1 57.106158 34.276880 51.395801
259    0  1 57.106161 34.276874 54.251036
260    0  1 57.106111 37.132277  0.000001
261    0  1 57.106108 37.132284  2.855206
262    0  1 57.106102 37.132301  5.710438
263    0  1 57.106096 37.132317  8.565708
264    0  1 57.106094 37.132318 11.421017
265    0  1 57.106096 37.132286 14.276356
266    0  1 57.106102 37.132214 17.131716
267    0  1 57.106111 37.132113 19.987083
268    0  1 57.106121 37.132011 22.842443
269    0  1 57.106128 37.131937 25.697787
270    0  1 57.106131 37.131910 28.553121
271    0  1 57.106128 37.131937 31.408454
272    0  1 57.106121 37.132011 34.263799
273    0  1 57.106111 37.132113 37.119158
274    0  1 57.106102 37.132214 39.974525
275    0  1 57.106096 37.132286 42.829885
276    0  1 57.106094 37.132318 45.685224
277    0  1 57.106096 37.132317 48.540533
278    0  1 57.106102 37.132301 51.395803
279    0  1 57.106108 37.132284 54.251035
280    0  1 57.106070 39.987662  0.000001
281    0  1 57.106067 39.987677  2.855206
282    0  1 57.106059 39.987718  5.710429
283    0  1 57.106049 39.987762  8.565679
284    0  1 57.106043 39.987776 11.420968
285    0  1 57.106043 39.987727 14.276308
286    0  1 57.106048 39.987617 17.131691
287    0  1 57.106057 39.987481 19.987083
288    0  1 57.106067 39.987362 22.842454
289    0  1 57.106074 39.987282 25.697796
290    0  1 57.106077 39.987254 28.553121
291    0  1 57.106074 39.987282 31.408445
292    0  1 57.106067 39.987362 34.263788
293    0  1 57.106057 39.987481 37.119158
294    0  1 57.106048 39.987617 39.974550
295    0  1 57.106043 39.987727 42.829933
296    0  1 57.106043 39.987776 45.685273
297    0  1 57.106049 39.987762 48.540562
298    0  1 57.106059 39.987718 51.395813
299    0  1 57.106067 39.987677 54.251035
300    0  1 57.106047 42.843012  0.000001
301    0  1 57.106043 42.843049  2.855200
302    0  1 57.106032 42.843144  5.710397
303    0  1 57.106020 42.843243  8.565603
304    0  1 57.106010 42.843260 11.420876
305    0  1 57.106006 42.843156 14.276256
306    0  1 57.106009 42.842990 17.131691
307    0  1 57.106015 42.842835 19.987106
308    0  1 57.106022 42.842716 22.842476
309    0  1 57.106028 42.842643 25.697809
310    0  1 57.106030 42.842618 28.553121
311    0  1 57.106028 42.842643 31.408432
312    0  1 57.106022 42.842716 34.263765
313    0  1 57.106015 42.842835 37.119136
314    0  1 57.106009 42.842990 39.974550
315    0  1 57.106006 42.843156 42.829985
316    0  1 57.106010 42.843260 45.685365
317    0  1 57.106020 42.843243 48.540638
318    0  1 57.106032 42.843144 51.395845
319    0  1 57.106043 42.843049 54.251042
320    0  1 57.106045 45.698298  0.000001
321    0  1 57.106041 45.698401  2.855176
322    0  1 57.106029 45.698634  5.710288
323    0  1 57.106015 45.698814  8.565408
324    0  1 57.106003 45.698737 11.420747
325    0  1 57.105995 45.698502 14.276259
326    0  1 57.105994 45.698304 17.131740
327    0  1 57.105996 45.698161 19.987153
328    0  1 57.106000 45.698063 22.842508
329    0  1 57.106004 45.698004 25.697825
330    0  1 57.106005 45.697985 28.553121
331    0  1 57.106004 45.698004 31.408417
332    0  1 57.106000 45.698063 34.263733
333    0  1 57.105996 45.698161 37.119088
334    0  1 57.105994 45.698304 39.974501
335    0  1 57.105995 45.698502 42.829982
336    0  1 57.106003 45.698737 45.685495
337    0  1 57.106015 45.698814 48.540833
338    0  1 57.106029 45.698634 51.395953
339    0  1 57.106041 45.698401 54.251065
340    0  1 57.106070 48.553373  0.000001
341    0  1 57.106066 48.553788  2.855092
342    0  1 57.106055 48.554411  5.709884
343    0  1 57.106041 48.554488  8.565014
344    0  1 57.106028 48.554009 11.420762
345    0  1 57.106018 48.553722 14.276366
346    0  1 57.106014 48.553559 17.131831
347    0  1 57.106013 48.553454 19.987214
348    0  1 57.106014 48.553385 22.842544
349    0  1 57.106015 48.553345 25.697840
350    0  1 57.106015 48.553331 28.553121
351    0  1 57.106015 48.553345 31.408401
352    0  1 57.106014 48.553385 34.263698
353    0  1 57.106013 48.553454 37.119028
354    0  1 57.106014 48.553559 39.974410
355    0  1 57.106018 48.553722 42.829876
356    0  1 57.106028 48.554009 45.685479
357    0  1 57.106041 48.554488 48.541227
358    0  1 57.106055 48.554411 51.396357
359    0  1 57.106066 48.553788 54.251149
360    0  1 57.106119 51.406484  0.000001
361    0  1 57.106119 51.409826  2.854440
362    0  1 57.106111 51.411026  5.708427
363    0  1 57.106099 51.409515  8.565158
364    0  1 57.106088 51.409046 11.421012
365    0  1 57.106079 51.408870 14.276530
366    0  1 57.106074 51.408774 17.131930
367    0  1 57.106071 51.408713 19.987271
368    0  1 57.106070 51.408671 22.842575
369    0  1 57.106070 51.408647 25.697854
370    0  1 57.106070 51.408640 28.553121
371    0  1 57.106070 51.408647 31.408387
372    0  1 57.106070 51.408671 34.263666
373    0  1 57.106071 51.408713 37.118970
374    0  1 57.106074 51.408774 39.974312
375    0  1 57.106079 51.408870 42.829712
376    0  1 57.106088 51.409046 45.685229
377    0  1 57.106099 51.409515 48.541083
378    0  1 57.106111 51.411026 51.397815
379    0  1 57.106119 51.409826 54.251801
380    0  1 57.106181 54.225112  0.000001
381    0  1 57.106195 54.270618  2.848714
382    0  1 57.106190 54.264867  5.709664
383    0  1 57.106184 54.264186  8.565826
384    0  1 57.106178 54.264067 11.421289
385    0  1 57.106172 54.264008 14.276663
386    0  1 57.106169 54.263968 17.132001
387    0  1 57.106167 54.263941 19.987311
388    0  1 57.106166 54.263922 22.842596
389    0  1 57.106165 54.263911 25.697863
390    0  1 57.106165 54.263908 28.553121
391    0  1 57.106165 54.263911 31.408378
392    0  1 57.106166 54.263922 34.263645
393    0  1 57.106167 54.263941 37.118930
394    0  1 57.106169 54.263968 39.974240
395    0  1 57.106172 54.264008 42.829578
396    0  1 57.106178 54.264067 45.684952
397    0  1 57.106184 54.264186 48.540416
398    0  1 57.106190 54.264867 51.396577
399    0  1 57.106195 54.270618 54.257527
400    0  1  2.894083  0.013015  0.000001
401    0  1  2.848578  0.013001  2.848714
402    0  1  2.854328  0.013005  5.709664
403    0  1  2.855009  0.013012  8.565826
404    0  1  2.855128  0.013018 11.421289
405    0  1  2.855188  0.013023 14.276663
406    0  1  2.855227  0.013026 17.132001
407    0  1  2.855254  0.013029 19.987311
408    0  1  2.855273  0.013030 22.842596
409    0  1  2.855284  0.013030 25.697863
410    0  1  2.855288  0.013030 28.553121
411    0  1  2.855284  0.013030 31.408378
412    0  1  2.855273  0.013030 34.263645
413    0  1  2.855254  0.013029 37.118930
414    0  1  2.855227  0.013026 39.974240
415    0  1  2.855188  0.013023 42.829578
416    0  1  2.855128  0.013018 45.684952
417    0  1  2.855009  0.013012 48.540416
418    0  1  2.854328  0.013005 51.396577
419    0  1  2.848578  0.013001 54.257527
420    0  1  2.848660  2.861526  0.000001
421    0  1  2.839401  2.852267  2.839459
422    0  1  2.854358  2.867224  5.709341
423    0  1  2.855053  2.867920  8.565704
424    0  1  2.855205  2.868071 11.421233
425    0  1  2.855285  2.868151 14.276644
426    0  1  2.855334  2.868200 17.132000
427    0  1  2.855366  2.868232 19.987316
428    0  1  2.855387  2.868253 22.842602
429    0  1  2.855399  2.868265 25.697867
430    0  1  2.855402  2.868268 28.553121
431    0  1  2.855399  2.868265 31.408375
432    0  1  2.855387  2.868253 34.263640
433    0  1  2.855366  2.868232 37.118926
434    0  1  2.855334  2.868200 39.974242
435    0  1  2.855285  2.868151 42.829597
436    0  1  2.855205  2.868071 45.685008
437    0  1  2.855054  2.867919 48.540537
438    0  1  2.854358  2.867224 51.396901
439    0  1  2.839401  2.852267 54.266782
440    0  1  2.854467  5.722308  0.000001
441    0  1  2.854411  5.721982  2.854392
442    0  1  2.854578  5.721098  5.708429
443    0  1  2.854998  5.722581  8.565123
444    0  1  2.855235  5.723085 11.421004
445    0  1  2.855344  5.723282 14.276541
446    0  1  2.855404  5.723390 17.131950
447    0  1  2.855441  5.723458 19.987293
448    0  1  2.855465  5.723503 22.842592
449    0  1  2.855478  5.723528 25.697863
450    0  1  2.855482  5.723536 28.553121
451    0  1  2.855478  5.723528 31.408378
452    0  1  2.855465  5.723503 34.263649
453    0  1  2.855441  5.723458 37.118949
454    0  1  2.855404  5.723390 39.974291
455    0  1  2.855344  5.723282 42.829700
456    0  1  2.855235  5.723085 45.685237
457    0  1  2.854998  5.722581 48.541118
458    0  1  2.854578  5.721098 51.397813
459    0  1  2.854411  5.721982 54.251849
460    0  1  2.855176  8.578333  0.000001
461    0  1  2.855129  8.578206  2.855056
462    0  1  2.855016  8.577656  5.709858
463    0  1  2.855114  8.577636  8.565037
464    0  1  2.855271  8.578127 11.420793
465    0  1  2.855374  8.578426 14.276402
466    0  1  2.855439  8.578600 17.131870
467    0  1  2.855480  8.578712 19.987249
468    0  1  2.855506  8.578786 22.842571
469    0  1  2.855519  8.578828 25.697855
470    0  1  2.855524  8.578842 28.553121
471    0  1  2.855519  8.578828 31.408386
472    0  1  2.855506  8.578786 34.263671
473    0  1  2.855480  8.578712 37.118992
474    0  1  2.855439  8.578600 39.974371
475    0  1  2.855374  8.578426 42.829839
476    0  1  2.855271  8.578127 45.685448
477    0  1  2.855114  8.577636 48.541204
478    0  1  2.855016  8.577656 51.396384
479    0  1  2.855129  8.578206 54.251185
480    0  1  2.855292 11.433705  0.000001
481    0  1  2.855270 11.433640  2.855166
482    0  1  2.855235 11.433439  5.710288
483    0  1  2.855250 11.433293  8.565435
484    0  1  2.855310 11.433390 11.420791
485    0  1  2.855385 11.433636 14.276310
486    0  1  2.855447 11.433844 17.131791
487    0  1  2.855490 11.433995 19.987199
488    0  1  2.855518 11.434099 22.842543
489    0  1  2.855533 11.434159 25.697843
490    0  1  2.855538 11.434179 28.553121
491    0  1  2.855533 11.434159 31.408398
492    0  1  2.855518 11.434099 34.263698
493    0  1  2.855490 11.433995 37.119042
494    0  1  2.855447 11.433844 39.974450
495    0  1  2.855385 11.433636 42.829932
496    0  1  2.855310 11.433390 45.685450
497    0  1  2.855250 11.433293 48.540806
498    0  1  2.855235 11.433439 51.395953
499    0  1  2.855270 11.433640 54.251075
500    0  1  2.855322 14.289041  0.000001
501    0  1  2.855313 14.289011  2.855201
502    0  1  2.855300 14.288928  5.710405
503    0  1  2.855303 14.288845  8.565626
504    0  1  2.855332 14.288844 11.420915
505    0  1  2.855383 14.288962 14.276307
506    0  1  2.855439 14.289141 17.131747
507    0  1  2.855485 14.289307 19.987158
508    0  1  2.855516 14.289433 22.842517
509    0  1  2.855534 14.289511 25.697831
510    0  1  2.855539 14.289537 28.553121
511    0  1  2.855534 14.289511 31.408410
512    0  1  2.855516 14.289433 34.263724
513    0  1  2.855485 14.289307 37.119083
514    0  1  2.855439 14.289141 39.974495
515    0  1  2.855383 14.288962 42.829934
516    0  1  2.855333 14.288844 45.685326
517    0  1  2.855303 14.288845 48.540615
518    0  1  2.855300 14.288928 51.395836
519    0  1  2.855313 14.289011 54.251040
520    0  1  2.855313 17.144398  0.000001
521    0  1  2.855307 17.144384  2.855208
522    0  1  2.855298 17.144346  5.710434
523    0  1  2.855300 17.144307  8.565692
524    0  1  2.855323 17.144303 11.420993
525    0  1  2.855368 17.144366 14.276348
526    0  1  2.855422 17.144494 17.131742
527    0  1  2.855472 17.144646 19.987136
528    0  1  2.855509 17.144779 22.842497
529    0  1  2.855531 17.144867 25.697820
530    0  1  2.855538 17.144898 28.553121
531    0  1  2.855531 17.144867 31.408421
532    0  1  2.855509 17.144779 34.263744
533    0  1  2.855472 17.144646 37.119106
534    0  1  2.855422 17.144494 39.974499
535    0  1  2.855368 17.144366 42.829893
536    0  1  2.855323 17.144303 45.685248
537    0  1  2.855300 17.144307 48.540550
538    0  1  2.855298 17.144346 51.395807
539    0  1  2.855307 17.144384 54.251033
540    0  1  2.855279 19.999780  0.000001
541    0  1  2.855273 19.999772  2.855204
542    0  1  2.855264 19.999753  5.710433
543    0  1  2.855265 19.999736  8.565706
544    0  1  2.855289 19.999740 11.421023
545    0  1  2.855337 19.999784 14.276377
546    0  1  2.855397 19.999877 17.131752
547    0  1  2.855455 20.000002 19.987128
548    0  1  2.855499 20.000125 22.842483
549    0  1  2.855526 20.000213 25.697811
550    0  1  2.855535 20.000245 28.553121
551    0  1  2.855526 20.000213 31.408430
552    0  1  2.855499 20.000125 34.263758
553    0  1  2.855455 20.000002 37.119114
554    0  1  2.855397 19.999877 39.974489
555    0  1  2.855337 19.999784 42.829864
556    0  1  2.855289 19.999740 45.685218
557    0  1  2.855265 19.999736 48.540535
558    0  1  2.855264 19.999753 51.395808
559    0  1  2.855273 19.999772 54.251037
560    0  1  2.855231 22.855181  0.000001
561    0  1  2.855224 22.855176  2.855197
562    0  1  2.855213 22.855165  5.710423
563    0  1  2.855213 22.855157  8.565700
564    0  1  2.855239 22.855164 11.421026
565    0  1  2.855293 22.855197 14.276385
566    0  1  2.855362 22.855265 17.131755
567    0  1  2.855430 22.855360 19.987119
568    0  1  2.855483 22.855461 22.842469
569    0  1  2.855515 22.855539 25.697801
570    0  1  2.855526 22.855568 28.553121
571    0  1  2.855515 22.855539 31.408441
572    0  1  2.855483 22.855461 34.263772
573    0  1  2.855430 22.855360 37.119122
574    0  1  2.855362 22.855265 39.974486
575    0  1  2.855293 22.855197 42.829857
576    0  1  2.855239 22.855164 45.685216
577    0  1  2.855213 22.855157 48.540542
578    0  1  2.855213 22.855165 51.395818
579    0  1  2.855224 22.855176 54.251045
580    0  1  2.855174 25.710596  0.000001
581    0  1  2.855166 25.710593  2.855189
582    0  1  2.855152 25.710586  5.710410
583    0  1  2.855151 25.710581  8.565685
584    0  1  2.855179 25.710585 11.421014
585    0  1  2.855239 25.710608 14.276375
586    0  1  2.855316 25.710652 17.131743
587    0  1  2.855392 25.710715 19.987102
588    0  1  2.855453 25.710786 22.842448
589    0  1  2.855491 25.710844 25.697787
590    0  1  2.855503 25.710866 28.553121
591    0  1  2.855491 25.710844 31.408455
592    0  1  2.855453 25.710786 34.263793
593    0  1  2.855392 25.710715 37.119139
594    0  1  2.855316 25.710652 39.974498
595    0  1  2.855239 25.710608 42.829866
596    0  1  2.855179 25.710585 45.685228
597    0  1  2.855151 25.710581 48.540556
598    0  1  2.855152 25.710586 51.395831
599    0  1  2.855166 25.710593 54.251053
600    0  1  2.855112 28.566021  0.000001
601    0  1  2.855104 28.566019  2.855182
602    0  1  2.855087 28.566015  5.710397
603    0  1  2.855083 28.566011  8.565667
604    0  1  2.855112 28.566012 11.420993
605    0  1  2.855174 28.566022 14.276352
606    0  1  2.855257 28.566043 17.131717
607    0  1  2.855339 28.566073 19.987074
608    0  1  2.855405 28.566106 22.842422
609    0  1  2.855447 28.566133 25.697770
610    0  1  2.855461 28.566143 28.553121
611    0  1  2.855447 28.566133 31.408472
612    0  1  2.855405 28.566106 34.263819
613    0  1  2.855339 28.566073 37.119167
614    0  1  2.855257 28.566043 39.974524
615    0  1  2.855174 28.566022 42.829890
616    0  1  2.855112 28.566012 45.685249
617    0  1  2.855083 28.566011 48.540574
618    0  1  2.855087 28.566015 51.395845
619    0  1  2.855104 28.566019 54.251060
620    0  1  2.855050 31.421450  0.000001
621    0  1  2.855040 31.421450  2.855175
622    0  1  2.855020 31.421450  5.710383
623    0  1  2.855013 31.421450  8.565646
624    0  1  2.855038 31.421450 11.420964
625    0  1  2.855099 31.421450 14.276317
626    0  1  2.855182 31.421447 17.131680
627    0  1  2.855266 31.421440 19.987039
628    0  1  2.855335 31.421430 22.842395
629    0  1  2.855379 31.421420 25.697755
630    0  1  2.855394 31.421415 28.553121
631    0  1  2.855379 31.421420 31.408486
632    0  1  2.855335 31.421430 34.263846
633    0  1  2.855266 31.421440 37.119202
634    0  1  2.855182 31.421447 39.974561
635    0  1  2.855099 31.421450 42.829924
636    0  1  2.855038 31.421450 45.685277
637    0  1  2.855013 31.421450 48.540595
638    0  1  2.855020 31.421450 51.395858
639    0  1  2.855040 31.421450 54.251066
640    0  1  2.854989 34.276880  0.000001
641    0  1  2.854978 34.276883  2.855170
642    0  1  2.854954 34.276891  5.710371
643    0  1  2.854942 34.276900  8.565623
644    0  1  2.854961 34.276904 11.420929
645    0  1  2.855016 34.276895 14.276274
646    0  1  2.855094 34.276868 17.131637
647    0  1  2.855176 34.276822 19.987005
648    0  1  2.855244 34.276768 22.842376
649    0  1  2.855288 34.276722 25.697748
650    0  1  2.855303 34.276704 28.553121
651    0  1  2.855288 34.276722 31.408493
652    0  1  2.855244 34.276768 34.263865
653    0  1  2.855176 34.276822 37.119236
654    0  1  2.855094 34.276868 39.974605
655    0  1  2.855016 34.276895 42.829968
656    0  1  2.854961 34.276904 45.685312
657    0  1  2.854942 34.276900 48.540618
658    0  1  2.854954 34.276891 51.395871
659    0  1  2.854978 34.276883 54.251071
660    0  1  2.854935 37.132304  0.000001
661    0  1  2.854922 37.132312  2.855165
662    0  1  2.854893 37.132335  5.710357
663    0  1  2.854873 37.132361  8.565595
664    0  1  2.854883 37.132376 11.420885
665    0  1  2.854928 37.132361 14.276222
666    0  1  2.854997 37.132306 17.131592
667    0  1  2.855072 37.132219 19.986981
668    0  1  2.855136 37.132125 22.842370
669    0  1  2.855178 37.132054 25.697749
670    0  1  2.855192 37.132028 28.553121
671    0  1  2.855178 37.132054 31.408492
672    0  1  2.855136 37.132125 34.263871
673    0  1  2.855072 37.132219 37.119260
674    0  1  2.854997 37.132306 39.974649
675    0  1  2.854928 37.132361 42.830020
676    0  1  2.854883 37.132376 45.685356
677    0  1  2.854873 37.132361 48.540646
678    0  1  2.854893 37.132335 51.395884
679    0  1  2.854922 37.132312 54.251076
680    0  1  2.854888 39.987715  0.000001
681    0  1  2.854873 39.987733  2.855160
682    0  1  2.854839 39.987781  5.710339
683    0  1  2.854811 39.987839  8.565555
684    0  1  2.854811 39.987870 11.420825
685    0  1  2.854846 39.987839 14.276163
686    0  1  2.854905 39.987744 17.131560
687    0  1  2.854971 39.987617 19.986977
688    0  1  2.855026 39.987500 22.842380
689    0  1  2.855062 39.987420 25.697759
690    0  1  2.855075 39.987391 28.553121
691    0  1  2.855062 39.987420 31.408483
692    0  1  2.855026 39.987500 34.263861
693    0  1  2.854971 39.987617 37.119264
694    0  1  2.854905 39.987744 39.974681
695    0  1  2.854846 39.987839 42.830078
696    0  1  2.854811 39.987870 45.685416
697    0  1  2.854811 39.987839 48.540686
698    0  1  2.854839 39.987781 51.395902
699    0  1  2.854873 39.987733 54.251082
700    0  1  2.854852 42.843105  0.000001
701    0  1  2.854831 42.843141  2.855147
702    0  1  2.854788 42.843240  5.710299
703    0  1  2.854754 42.843350  8.565475
704    0  1  2.854753 42.843384 11.420733
705    0  1  2.854786 42.843298 14.276114
706    0  1  2.854839 42.843145 17.131564
707    0  1  2.854894 42.842996 19.987004
708    0  1  2.854938 42.842879 22.842407
709    0  1  2.854967 42.842804 25.697774
710    0  1  2.854976 42.842779 28.553121
711    0  1  2.854967 42.842804 31.408467
712    0  1  2.854938 42.842879 34.263834
713    0  1  2.854894 42.842996 37.119237
714    0  1  2.854839 42.843145 39.974678
715    0  1  2.854786 42.843298 42.830128
716    0  1  2.854753 42.843384 45.685508
717    0  1  2.854755 42.843350 48.540766
718    0  1  2.854788 42.843240 51.395942
719    0  1  2.854831 42.843141 54.251095
720    0  1  2.854820 45.698473  0.000001
721    0  1  2.854785 45.698546  2.855110
722    0  1  2.854720 45.698766  5.710181
723    0  1  2.854694 45.698942  8.565286
724    0  1  2.854718 45.698878 11.420616
725    0  1  2.854770 45.698661 14.276129
726    0  1  2.854821 45.698474 17.131625
727    0  1  2.854865 45.698336 19.987063
728    0  1  2.854898 45.698239 22.842447
729    0  1  2.854919 45.698181 25.697794
730    0  1  2.854926 45.698161 28.553121
731    0  1  2.854919 45.698181 31.408447
732    0  1  2.854898 45.698239 34.263794
733    0  1  2.854865 45.698336 37.119178
734    0  1  2.854821 45.698474 39.974616
735    0  1  2.854770 45.698661 42.830112
736    0  1  2.854718 45.698878 45.685625
737    0  1  2.854694 45.698942 48.540955
738    0  1  2.854720 45.698766 51.396060
739    0  1  2.854785 45.698546 54.251131
740    0  1  2.854753 48.553872  0.000001
741    0  1  2.854694 48.554007  2.855005
742    0  1  2.854553 48.554577  5.709762
743    0  1  2.854615 48.554623  8.564907
744    0  1  2.854737 48.554160 11.420645
745    0  1  2.854814 48.553885 14.276253
746    0  1  2.854864 48.553727 17.131735
747    0  1  2.854899 48.553626 19.987140
748    0  1  2.854924 48.553558 22.842494
749    0  1  2.854939 48.553518 25.697816
750    0  1  2.854944 48.553505 28.553121
751    0  1  2.854939 48.553518 31.408426
752    0  1  2.854924 48.553558 34.263747
753    0  1  2.854899 48.553626 37.119101
754    0  1  2.854864 48.553727 39.974506
755    0  1  2.854814 48.553885 42.829988
756    0  1  2.854737 48.554160 45.685596
757    0  1  2.854615 48.554623 48.541334
758    0  1  2.854553 48.554577 51.396479
759    0  1  2.854694 48.554007 54.251236
760    0  1  2.854143 51.409919  0.000001
761    0  1  2.854079 51.410252  2.854351
762    0  1  2.854228 51.411150  5.708356
763    0  1  2.854620 51.409686  8.565028
764    0  1  2.854830 51.409203 11.420898
765    0  1  2.854917 51.409022 14.276436
766    0  1  2.854963 51.408928 17.131856
767    0  1  2.854992 51.408867 19.987216
768    0  1  2.855012 51.408827 22.842539
769    0  1  2.855024 51.408804 25.697836
770    0  1  2.855027 51.408796 28.553121
771    0  1  2.855024 51.408804 31.408405
772    0  1  2.855012 51.408827 34.263702
773    0  1  2.854992 51.408867 37.119025
774    0  1  2.854963 51.408928 39.974386
775    0  1  2.854917 51.409022 42.829805
776    0  1  2.854830 51.409203 45.685343
777    0  1  2.854620 51.409685 48.541213
778    0  1  2.854228 51.411150 51.397885
779    0  1  2.854079 51.410252 54.251890
780    0  1  2.848474 54.270722  0.000001
781    0  1  2.839208 54.279987  2.839419
782    0  1  2.854167 54.265028  5.709301
783    0  1  2.854850 54.264346  8.565655
784    0  1  2.854987 54.264209 11.421178
785    0  1  2.855054 54.264141 14.276590
786    0  1  2.855094 54.264101 17.131951
787    0  1  2.855121 54.264074 19.987277
788    0  1  2.855139 54.264056 22.842575
789    0  1  2.855150 54.264046 25.697853
790    0  1  2.855153 54.264042 28.553121
791    0  1  2.855150 54.264046 31.408388
792    0  1  2.855139 54.264056 34.263667
793    0  1  2.855121 54.264074 37.118965
794    0  1  2.855094 54.264101 39.974290
795    0  1  2.855054 54.264141 42.829651
796    0  1  2.854987 54.264209 45.685063
797    0  1  2.854850 54.264346 48.540586
798    0  1  2.854167 54.265028 51.396940
799    0  1  2.839208 54.279987 54.266822
800    0  1  5.712711  0.013076  0.000001
801    0  1  5.709370  0.013077  2.854440
802    0  1  5.708169  0.013085  5.708427
803    0  1  5.709681  0.013097  8.565158
804    0  1  5.710150  0.013108 11.421012
805    0  1  5.710326  0.013116 14.276530
806    0  1  5.710421  0.013122 17.131930
807    0  1  5.710483  0.013124 19.987271
808    0  1  5.710524  0.013125 22.842575
809    0  1  5.710548  0.013126 25.697854
810    0  1  5.710556  0.013126 28.553121
811    0  1  5.710548  0.013126 31.408387
812    0  1  5.710524  0.013125 34.263666
813    0  1  5.710483  0.013124 37.118970
814    0  1  5.710421  0.013122 39.974312
815    0  1  5.710326  0.013116 42.829712
816    0  1  5.710150  0.013108 45.685229
817    0  1  5.709681  0.013097 48.541083
818    0  1  5.708169  0.013085 51.397815
819    0  1  5.709370  0.013077 54.251801
820    0  1  5.709442  2.867333  0.000001
821    0  1  5.709116  2.867277  2.854392
822    0  1  5.708232  2.867444  5.708429
823    0  1  5.709715  2.867864  8.565123
824    0  1  5.710219  2.868101 11.421004
825    0  1  5.710416  2.868210 14.276541
826    0  1  5.710524  2.868270 17.131950
827    0  1  5.710592  2.868307 19.987293
828    0  1  5.710637  2.868331 22.842592
829    0  1  5.710662  2.868344 25.697863
830    0  1  5.710671  2.868348 28.553121
831    0  1  5.710662  2.868344 31.408378
832    0  1  5.710637  2.868331 34.263649
833    0  1  5.710592  2.868307 37.118949
834    0  1  5.710524  2.868270 39.974291
835    0  1  5.710416  2.868209 42.829700
836    0  1  5.710219  2.868101 45.685237
837    0  1  5.709715  2.867864 48.541118
838    0  1  5.708232  2.867444 51.397813
839    0  1  5.709116  2.867277 54.251849
840    0  1  5.708282  5.721148  0.000001
841    0  1  5.708268  5.721134  2.854542
842    0  1  5.707461  5.720327  5.707598
843    0  1  5.709638  5.722504  8.564909
844    0  1  5.710222  5.723088 11.420888
845    0  1  5.710450  5.723316 14.276478
846    0  1  5.710574  5.723440 17.131922
847    0  1  5.710653  5.723519 19.987283
848    0  1  5.710703  5.723569 22.842592
849    0  1  5.710730  5.723596 25.697865
850    0  1  5.710740  5.723605 28.553121
851    0  1  5.710730  5.723596 31.408376
852    0  1  5.710703  5.723569 34.263650
853    0  1  5.710653  5.723519 37.118958
854    0  1  5.710574  5.723440 39.974320
855    0  1  5.710450  5.723316 42.829763
856    0  1  5.710222  5.723088 45.685353
857    0  1  5.709638  5.722504 48.541332
858    0  1  5.707461  5.720327 51.398643
859    0  1  5.708268  5.721134 54.251699
860    0  1  5.709801  8.577736  0.000001
861    0  1  5.709750  8.577676  2.854925
862    0  1  5.709630  8.577485  5.709715
863    0  1  5.709931  8.577640  8.564995
864    0  1  5.710248  8.578137 11.420747
865    0  1  5.710456  8.578446 14.276370
866    0  1  5.710588  8.578635 17.131857
867    0  1  5.710675  8.578758 19.987251
868    0  1  5.710731  8.578839 22.842577
869    0  1  5.710763  8.578884 25.697860
870    0  1  5.710773  8.578899 28.553121
871    0  1  5.710763  8.578884 31.408381
872    0  1  5.710731  8.578839 34.263664
873    0  1  5.710675  8.578758 37.118991
874    0  1  5.710588  8.578635 39.974384
875    0  1  5.710456  8.578446 42.829871
876    0  1  5.710248  8.578137 45.685494
877    0  1  5.709931  8.577640 48.541246
878    0  1  5.709630  8.577485 51.396526
879    0  1  5.709750  8.577676 54.251316
880    0  1  5.710243 11.433485  0.000001
881    0  1  5.710216 11.433446  2.855111
882    0  1  5.710166 11.433344  5.710213
883    0  1  5.710193 11.433267  8.565382
884    0  1  5.710309 11.433391 11.420758
885    0  1  5.710457 11.433643 14.276289
886    0  1  5.710583 11.433861 17.131786
887    0  1  5.710677 11.434024 19.987207
888    0  1  5.710740 11.434137 22.842556
889    0  1  5.710776 11.434204 25.697852
890    0  1  5.710788 11.434226 28.553121
891    0  1  5.710776 11.434204 31.408389
892    0  1  5.710740 11.434137 34.263686
893    0  1  5.710677 11.434024 37.119034
894    0  1  5.710583 11.433861 39.974455
895    0  1  5.710457 11.433643 42.829952
896    0  1  5.710309 11.433391 45.685483
897    0  1  5.710193 11.433267 48.540859
898    0  1  5.710166 11.433344 51.396028
899    0  1  5.710216 11.433446 54.251130
900    0  1  5.710366 14.288949  0.000001
901    0  1  5.710349 14.288925  2.855165
902    0  1  5.710316 14.288863  5.710341
903    0  1  5.710310 14.288800  8.565557
904    0  1  5.710359 14.288816 11.420860
905    0  1  5.710457 14.288947 14.276274
906    0  1  5.710573 14.289139 17.131738
907    0  1  5.710675 14.289322 19.987167
908    0  1  5.710749 14.289462 22.842533
909    0  1  5.710792 14.289550 25.697843
910    0  1  5.710806 14.289579 28.553121
911    0  1  5.710792 14.289550 31.408398
912    0  1  5.710749 14.289462 34.263708
913    0  1  5.710675 14.289322 37.119074
914    0  1  5.710573 14.289139 39.974503
915    0  1  5.710457 14.288947 42.829967
916    0  1  5.710359 14.288816 45.685382
917    0  1  5.710310 14.288800 48.540685
918    0  1  5.710316 14.288863 51.395900
919    0  1  5.710349 14.288925 54.251076
920    0  1  5.710390 17.144351  0.000001
921    0  1  5.710376 17.144335  2.855172
922    0  1  5.710346 17.144295  5.710366
923    0  1  5.710333 17.144254  8.565604
924    0  1  5.710365 17.144252 11.420908
925    0  1  5.710449 17.144326 14.276288
926    0  1  5.710565 17.144474 17.131717
927    0  1  5.710680 17.144652 19.987141
928    0  1  5.710769 17.144809 22.842515
929    0  1  5.710823 17.144914 25.697835
930    0  1  5.710840 17.144951 28.553121
931    0  1  5.710823 17.144914 31.408406
932    0  1  5.710769 17.144809 34.263726
933    0  1  5.710680 17.144652 37.119100
934    0  1  5.710565 17.144474 39.974524
935    0  1  5.710449 17.144326 42.829953
936    0  1  5.710365 17.144252 45.685333
937    0  1  5.710333 17.144254 48.540638
938    0  1  5.710346 17.144295 51.395876
939    0  1  5.710376 17.144335 54.251069
940    0  1  5.710373 19.999751  0.000001
941    0  1  5.710358 19.999739  2.855164
942    0  1  5.710325 19.999710  5.710354
943    0  1  5.710307 19.999680  8.565596
944    0  1  5.710336 19.999677 11.420908
945    0  1  5.710425 19.999729 14.276285
946    0  1  5.710555 19.999845 17.131703
947    0  1  5.710689 20.000005 19.987120
948    0  1  5.710797 20.000166 22.842498
949    0  1  5.710863 20.000282 25.697826
950    0  1  5.710885 20.000323 28.553121
951    0  1  5.710863 20.000282 31.408415
952    0  1  5.710797 20.000166 34.263743
953    0  1  5.710689 20.000005 37.119121
954    0  1  5.710555 19.999845 39.974538
955    0  1  5.710425 19.999729 42.829956
956    0  1  5.710336 19.999677 45.685334
957    0  1  5.710307 19.999680 48.540645
958    0  1  5.710325 19.999710 51.395887
959    0  1  5.710358 19.999739 54.251077
960    0  1  5.710335 22.855161  0.000001
961    0  1  5.710317 22.855152  2.855151
962    0  1  5.710280 22.855129  5.710331
963    0  1  5.710256 22.855106  8.565568
964    0  1  5.710286 22.855102 11.420880
965    0  1  5.710384 22.855140 14.276260
966    0  1  5.710532 22.855230 17.131676
967    0  1  5.710687 22.855366 19.987088
968    0  1  5.710815 22.855515 22.842470
969    0  1  5.710895 22.855632 25.697809
970    0  1  5.710922 22.855676 28.553121
971    0  1  5.710895 22.855632 31.408432
972    0  1  5.710815 22.855515 34.263772
973    0  1  5.710687 22.855366 37.119153
974    0  1  5.710532 22.855230 39.974566
975    0  1  5.710384 22.855140 42.829981
976    0  1  5.710286 22.855103 45.685361
977    0  1  5.710256 22.855106 48.540673
978    0  1  5.710280 22.855129 51.395910
979    0  1  5.710317 22.855152 54.251090
980    0  1  5.710284 25.710583  0.000001
981    0  1  5.710264 25.710577  2.855138
982    0  1  5.710220 25.710560  5.710305
983    0  1  5.710191 25.710542  8.565532
984    0  1  5.710220 25.710538 11.420839
985    0  1  5.710326 25.710564 14.276217
986    0  1  5.710488 25.710629 17.131630
987    0  1  5.710661 25.710732 19.987038
988    0  1  5.710805 25.710852 22.842421
989    0  1  5.710896 25.710953 25.697779
990    0  1  5.710927 25.710993 28.553121
991    0  1  5.710896 25.710953 31.408462
992    0  1  5.710805 25.710852 34.263820
993    0  1  5.710661 25.710732 37.119203
994    0  1  5.710488 25.710629 39.974612
995    0  1  5.710326 25.710564 42.830024
996    0  1  5.710220 25.710538 45.685402
997    0  1  5.710191 25.710542 48.540709
998    0  1  5.710220 25.710560 51.395937
999    0  1  5.710264 25.710577 54.251104
1000   0  1  5.710226 28.566017  0.000001
1001   0  1  5.710204 28.566013  2.855125
1002   0  1  5.710154 28.566003  5.710279
1003   0  1  5.710117 28.565993  8.565494
1004   0  1  5.710142 28.565992 11.420791
1005   0  1  5.710249 28.566008 14.276161
1006   0  1  5.710418 28.566049 17.131568
1007   0  1  5.710600 28.566112 19.986971
1008   0  1  5.710752 28.566186 22.842359
1009   0  1  5.710850 28.566248 25.697739
1010   0  1  5.710884 28.566273 28.553121
1011   0  1  5.710850 28.566248 31.408502
1012   0  1  5.710752 28.566186 34.263882
1013   0  1  5.710600 28.566112 37.119270
1014   0  1  5.710418 28.566049 39.974674
1015   0  1  5.710249 28.566008 42.830080
1016   0  1  5.710142 28.565992 45.685451
1017   0  1  5.710117 28.565993 48.540748
1018   0  1  5.710154 28.566003 51.395963
1019   0  1  5.710204 28.566013 54.251117
1020   0  1  5.710164 31.421459  0.000001
1021   0  1  5.710140 31.421459  2.855113
1022   0  1  5.710083 31.421460  5.710254
1023   0  1  5.710038 31.421463  8.565455
1024   0  1  5.710053 31.421469 11.420737
1025   0  1  5.710153 31.421481 14.276095
1026   0  1  5.710317 31.421498 17.131494
1027   0  1  5.710497 31.421517 19.986899
1028   0  1  5.710650 31.421532 22.842300
1029   0  1  5.710749 31.421539 25.697705
1030   0  1  5.710783 31.421540 28.553121
1031   0  1  5.710749 31.421539 31.408536
1032   0  1  5.710650 31.421532 34.263942
1033   0  1  5.710497 31.421517 37.119342
1034   0  1  5.710317 31.421498 39.974747
1035   0  1  5.710153 31.421481 42.830146
1036   0  1  5.710053 31.421469 45.685504
1037   0  1  5.710038 31.421463 48.540787
1038   0  1  5.710083 31.421460 51.395987
1039   0  1  5.710140 31.421459 54.251128
1040   0  1  5.710101 34.276908  0.000001
1041   0  1  5.710075 34.276914  2.855103
1042   0  1  5.710012 34.276930  5.710231
1043   0  1  5.709955 34.276952  8.565416
1044   0  1  5.709956 34.276973 11.420680
1045   0  1  5.710040 34.276985 14.276024
1046   0  1  5.710188 34.276978 17.131420
1047   0  1  5.710356 34.276949 19.986836
1048   0  1  5.710501 34.276902 22.842260
1049   0  1  5.710595 34.276855 25.697689
1050   0  1  5.710627 34.276835 28.553121
1051   0  1  5.710595 34.276855 31.408552
1052   0  1  5.710501 34.276902 34.263981
1053   0  1  5.710356 34.276949 37.119405
1054   0  1  5.710188 34.276978 39.974822
1055   0  1  5.710040 34.276985 42.830217
1056   0  1  5.709956 34.276973 45.685561
1057   0  1  5.709955 34.276952 48.540826
1058   0  1  5.710012 34.276930 51.396010
1059   0  1  5.710075 34.276914 54.251139
1060   0  1  5.710040 37.132361  0.000001
1061   0  1  5.710011 37.132374  2.855093
1062   0  1  5.709941 37.132410  5.710209
1063   0  1  5.709874 37.132459  8.565376
1064   0  1  5.709858 37.132502 11.420622
1065   0  1  5.709919 37.132514 14.275954
1066   0  1  5.710043 37.132480 17.131357
1067   0  1  5.710190 37.132401 19.986798
1068   0  1  5.710318 37.132302 22.842249
1069   0  1  5.710402 37.132221 25.697690
1070   0  1  5.710430 37.132190 28.553121
1071   0  1  5.710402 37.132221 31.408551
1072   0  1  5.710318 37.132302 34.263992
1073   0  1  5.710190 37.132401 37.119443
1074   0  1  5.710043 37.132480 39.974884
1075   0  1  5.709919 37.132514 42.830287
1076   0  1  5.709858 37.132502 45.685620
1077   0  1  5.709874 37.132459 48.540865
1078   0  1  5.709941 37.132410 51.396033
1079   0  1  5.710011 37.132374 54.251148
1080   0  1  5.709980 39.987814  0.000001
1081   0  1  5.709949 39.987838  2.855082
1082   0  1  5.709872 39.987901  5.710183
1083   0  1  5.709795 39.987984  8.565330
1084   0  1  5.709766 39.988047 11.420560
1085   0  1  5.709809 39.988047 14.275896
1086   0  1  5.709910 39.987972 17.131326
1087   0  1  5.710032 39.987849 19.986798
1088   0  1  5.710136 39.987724 22.842264
1089   0  1  5.710204 39.987634 25.697702
1090   0  1  5.710228 39.987601 28.553121
1091   0  1  5.710204 39.987634 31.408539
1092   0  1  5.710136 39.987724 34.263978
1093   0  1  5.710032 39.987849 37.119443
1094   0  1  5.709910 39.987972 39.974915
1095   0  1  5.709809 39.988047 42.830345
1096   0  1  5.709766 39.988047 45.685682
1097   0  1  5.709795 39.987984 48.540911
1098   0  1  5.709872 39.987901 51.396059
1099   0  1  5.709949 39.987838 54.251159
1100   0  1  5.709913 42.843277  0.000001
1101   0  1  5.709877 42.843313  2.855063
1102   0  1  5.709791 42.843412  5.710136
1103   0  1  5.709713 42.843533  8.565255
1104   0  1  5.709691 42.843592 11.420485
1105   0  1  5.709738 42.843536 14.275868
1106   0  1  5.709828 42.843403 17.131350
1107   0  1  5.709926 42.843259 19.986842
1108   0  1  5.710006 42.843138 22.842301
1109   0  1  5.710057 42.843058 25.697722
1110   0  1  5.710074 42.843031 28.553121
1111   0  1  5.710057 42.843058 31.408519
1112   0  1  5.710006 42.843138 34.263940
1113   0  1  5.709926 42.843259 37.119400
1114   0  1  5.709828 42.843403 39.974891
1115   0  1  5.709738 42.843536 42.830373
1116   0  1  5.709691 42.843592 45.685756
1117   0  1  5.709713 42.843533 48.540986
1118   0  1  5.709791 42.843412 51.396105
1119   0  1  5.709877 42.843313 54.251179
1120   0  1  5.709790 45.698799  0.000001
1121   0  1  5.709743 45.698853  2.855007
1122   0  1  5.709642 45.698998  5.710007
1123   0  1  5.709597 45.699140  8.565086
1124   0  1  5.709644 45.699089 11.420403
1125   0  1  5.709737 45.698902 14.275917
1126   0  1  5.709831 45.698732 17.131441
1127   0  1  5.709911 45.698598 19.986923
1128   0  1  5.709971 45.698501 22.842356
1129   0  1  5.710008 45.698441 25.697749
1130   0  1  5.710020 45.698420 28.553121
1131   0  1  5.710008 45.698441 31.408492
1132   0  1  5.709971 45.698501 34.263885
1133   0  1  5.709911 45.698598 37.119318
1134   0  1  5.709831 45.698732 39.974800
1135   0  1  5.709737 45.698902 42.830324
1136   0  1  5.709644 45.699089 45.685838
1137   0  1  5.709598 45.699140 48.541155
1138   0  1  5.709642 45.698998 51.396234
1139   0  1  5.709743 45.698853 54.251234
1140   0  1  5.709397 48.554596  0.000001
1141   0  1  5.709330 48.554671  2.854831
1142   0  1  5.709166 48.554903  5.709532
1143   0  1  5.709407 48.554804  8.564741
1144   0  1  5.709665 48.554367 11.420452
1145   0  1  5.709826 48.554107 14.276069
1146   0  1  5.709926 48.553955 17.131583
1147   0  1  5.709996 48.553854 19.987028
1148   0  1  5.710044 48.553786 22.842422
1149   0  1  5.710072 48.553745 25.697780
1150   0  1  5.710081 48.553732 28.553121
1151   0  1  5.710072 48.553745 31.408461
1152   0  1  5.710044 48.553786 34.263820
1153   0  1  5.709996 48.553854 37.119213
1154   0  1  5.709926 48.553955 39.974658
1155   0  1  5.709826 48.554107 42.830172
1156   0  1  5.709665 48.554367 45.685789
1157   0  1  5.709407 48.554804 48.541500
1158   0  1  5.709166 48.554903 51.396709
1159   0  1  5.709330 48.554671 54.251411
1160   0  1  5.707976 51.411219  0.000001
1161   0  1  5.707950 51.411246  2.854469
1162   0  1  5.707112 51.412083  5.707460
1163   0  1  5.709250 51.409946  8.564726
1164   0  1  5.709793 51.409402 11.420681
1165   0  1  5.709987 51.409208 14.276270
1166   0  1  5.710088 51.409108 17.131734
1167   0  1  5.710151 51.409044 19.987132
1168   0  1  5.710193 51.409002 22.842486
1169   0  1  5.710218 51.408978 25.697811
1170   0  1  5.710226 51.408970 28.553121
1171   0  1  5.710218 51.408978 31.408430
1172   0  1  5.710193 51.409002 34.263755
1173   0  1  5.710151 51.409044 37.119109
1174   0  1  5.710088 51.409108 39.974507
1175   0  1  5.709987 51.409208 42.829971
1176   0  1  5.709793 51.409402 45.685560
1177   0  1  5.709250 51.409946 48.541515
1178   0  1  5.707112 51.412083 51.398781
1179   0  1  5.707950 51.411246 54.251772
1180   0  1  5.709276 54.265052  0.000001
1181   0  1  5.708943 54.265116  2.854351
1182   0  1  5.708046 54.264967  5.708356
1183   0  1  5.709510 54.264575  8.565028
1184   0  1  5.709992 54.264366 11.420898
1185   0  1  5.710173 54.264278 14.276436
1186   0  1  5.710268 54.264233 17.131856
1187   0  1  5.710328 54.264203 19.987216
1188   0  1  5.710368 54.264183 22.842539
1189   0  1  5.710392 54.264172 25.697836
1190   0  1  5.710399 54.264168 28.553121
1191   0  1  5.710392 54.264172 31.408405
1192   0  1  5.710368 54.264183 34.263702
1193   0  1  5.710328 54.264203 37.119025
1194   0  1  5.710268 54.264233 39.974386
1195   0  1  5.710173 54.264278 42.829805
1196   0  1  5.709993 54.264366 45.685343
1197   0  1  5.709510 54.264575 48.541213
1198   0  1  5.708046 54.264967 51.397885
1199   0  1  5.708943 54.265116 54.251890
1200   0  1  8.565823  0.013126  0.000001
1201   0  1  8.565408  0.013129  2.855092
1202   0  1  8.564784  0.013140  5.709884
1203   0  1  8.564708  0.013155  8.565015
1204   0  1  8.565186  0.013168 11.420762
1205   0  1  8.565473  0.013177 14.276366
1206   0  1  8.565637  0.013182 17.131831
1207   0  1  8.565742  0.013183 19.987214
1208   0  1  8.565811  0.013182 22.842544
1209   0  1  8.565851  0.013181 25.697840
1210   0  1  8.565864  0.013180 28.553121
1211   0  1  8.565851  0.013181 31.408401
1212   0  1  8.565811  0.013182 34.263698
1213   0  1  8.565742  0.013183 37.119028
1214   0  1  8.565637  0.013182 39.974410
1215   0  1  8.565473  0.013177 42.829876
1216   0  1  8.565186  0.013168 45.685479
1217   0  1  8.564708  0.013155 48.541227
1218   0  1  8.564784  0.013140 51.396357
1219   0  1  8.565408  0.013129 54.251149
1220   0  1  8.565467  2.868042  0.000001
1221   0  1  8.565340  2.867995  2.855056
1222   0  1  8.564790  2.867882  5.709858
1223   0  1  8.564770  2.867980  8.565037
1224   0  1  8.565261  2.868137 11.420793
1225   0  1  8.565560  2.868240 14.276402
1226   0  1  8.565734  2.868305 17.131870
1227   0  1  8.565846  2.868346 19.987249
1228   0  1  8.565920  2.868371 22.842571
1229   0  1  8.565962  2.868385 25.697855
1230   0  1  8.565976  2.868390 28.553121
1231   0  1  8.565962  2.868385 31.408386
1232   0  1  8.565920  2.868371 34.263671
1233   0  1  8.565846  2.868346 37.118992
1234   0  1  8.565734  2.868305 39.974371
1235   0  1  8.565560  2.868240 42.829839
1236   0  1  8.565261  2.868137 45.685448
1237   0  1  8.564770  2.867980 48.541204
1238   0  1  8.564790  2.867882 51.396384
1239   0  1  8.565340  2.867995 54.251185
1240   0  1  8.564870  5.722667  0.000001
1241   0  1  8.564810  5.722616  2.854925
1242   0  1  8.564619  5.722496  5.709715
1243   0  1  8.564774  5.722797  8.564995
1244   0  1  8.565271  5.723114 11.420747
1245   0  1  8.565580  5.723322 14.276370
1246   0  1  8.565769  5.723454 17.131857
1247   0  1  8.565892  5.723541 19.987251
1248   0  1  8.565973  5.723597 22.842577
1249   0  1  8.566019  5.723629 25.697860
1250   0  1  8.566033  5.723639 28.553121
1251   0  1  8.566019  5.723629 31.408381
1252   0  1  8.565973  5.723597 34.263664
1253   0  1  8.565892  5.723541 37.118991
1254   0  1  8.565769  5.723454 39.974384
1255   0  1  8.565580  5.723322 42.829871
1256   0  1  8.565271  5.723114 45.685494
1257   0  1  8.564774  5.722797 48.541246
1258   0  1  8.564619  5.722496 51.396526
1259   0  1  8.564810  5.722616 54.251316
1260   0  1  8.564785  8.577651  0.000001
1261   0  1  8.564770  8.577636  2.854981
1262   0  1  8.564746  8.577612  5.709948
1263   0  1  8.564781  8.577647  8.564952
1264   0  1  8.565261  8.578127 11.420664
1265   0  1  8.565563  8.578429 14.276291
1266   0  1  8.565761  8.578627 17.131805
1267   0  1  8.565897  8.578763 19.987225
1268   0  1  8.565988  8.578854 22.842569
1269   0  1  8.566039  8.578905 25.697859
1270   0  1  8.566056  8.578922 28.553121
1271   0  1  8.566039  8.578905 31.408383
1272   0  1  8.565988  8.578854 34.263673
1273   0  1  8.565897  8.578763 37.119017
1274   0  1  8.565761  8.578627 39.974437
1275   0  1  8.565563  8.578429 42.829951
1276   0  1  8.565261  8.578127 45.685577
1277   0  1  8.564781  8.577647 48.541290
1278   0  1  8.564746  8.577612 51.396293
1279   0  1  8.564770  8.577636 54.251260
1280   0  1  8.565220 11.433286  0.000001
1281   0  1  8.565203 11.433268  2.855078
1282   0  1  8.565170 11.433227  5.710162
1283   0  1  8.565177 11.433209  8.565300
1284   0  1  8.565339 11.433354 11.420676
1285   0  1  8.565546 11.433602 14.276211
1286   0  1  8.565733 11.433828 17.131733
1287   0  1  8.565881 11.434008 19.987182
1288   0  1  8.565985 11.434135 22.842550
1289   0  1  8.566045 11.434211 25.697853
1290   0  1  8.566065 11.434236 28.553121
1291   0  1  8.566045 11.434211 31.408388
1292   0  1  8.565985 11.434135 34.263691
1293   0  1  8.565881 11.434008 37.119059
1294   0  1  8.565733 11.433828 39.974509
1295   0  1  8.565546 11.433602 42.830031
1296   0  1  8.565339 11.433354 45.685566
1297   0  1  8.565177 11.433209 48.540942
1298   0  1  8.565170 11.433227 51.396079
1299   0  1  8.565203 11.433268 54.251163
1300   0  1  8.565437 14.288825  0.000001
1301   0  1  8.565417 14.288805  2.855116
1302   0  1  8.565373 14.288756  5.710247
1303   0  1  8.565348 14.288711  8.565430
1304   0  1  8.565399 14.288735 11.420727
1305   0  1  8.565531 14.288870 14.276163
1306   0  1  8.565703 14.289076 17.131665
1307   0  1  8.565865 14.289282 19.987136
1308   0  1  8.565988 14.289445 22.842529
1309   0  1  8.566060 14.289547 25.697846
1310   0  1  8.566084 14.289582 28.553121
1311   0  1  8.566060 14.289547 31.408395
1312   0  1  8.565988 14.289445 34.263712
1313   0  1  8.565865 14.289282 37.119105
1314   0  1  8.565703 14.289076 39.974576
1315   0  1  8.565531 14.288870 42.830079
1316   0  1  8.565399 14.288735 45.685514
1317   0  1  8.565348 14.288711 48.540811
1318   0  1  8.565373 14.288756 51.395994
1319   0  1  8.565417 14.288805 54.251125
1320   0  1  8.565514 17.144281  0.000001
1321   0  1  8.565491 17.144262  2.855119
1322   0  1  8.565438 17.144213  5.710256
1323   0  1  8.565391 17.144158  8.565443
1324   0  1  8.565403 17.144142 11.420724
1325   0  1  8.565504 17.144214 14.276124
1326   0  1  8.565677 17.144381 17.131609
1327   0  1  8.565865 17.144595 19.987095
1328   0  1  8.566016 17.144791 22.842510
1329   0  1  8.566108 17.144923 25.697841
1330   0  1  8.566138 17.144969 28.553121
1331   0  1  8.566108 17.144923 31.408400
1332   0  1  8.566016 17.144791 34.263731
1333   0  1  8.565865 17.144595 37.119146
1334   0  1  8.565677 17.144381 39.974632
1335   0  1  8.565504 17.144214 42.830118
1336   0  1  8.565403 17.144142 45.685517
1337   0  1  8.565391 17.144158 48.540798
1338   0  1  8.565438 17.144213 51.395986
1339   0  1  8.565491 17.144262 54.251123
1340   0  1  8.565527 19.999711  0.000001
1341   0  1  8.565501 19.999694  2.855107
1342   0  1  8.565436 19.999648  5.710232
1343   0  1  8.565371 19.999592  8.565408
1344   0  1  8.565364 19.999561 11.420677
1345   0  1  8.565461 19.999600 14.276066
1346   0  1  8.565653 19.999735 17.131549
1347   0  1  8.565880 19.999946 19.987050
1348   0  1  8.566072 20.000167 22.842488
1349   0  1  8.566192 20.000328 25.697834
1350   0  1  8.566232 20.000387 28.553121
1351   0  1  8.566192 20.000328 31.408407
1352   0  1  8.566072 20.000167 34.263754
1353   0  1  8.565880 19.999946 37.119191
1354   0  1  8.565653 19.999735 39.974692
1355   0  1  8.565461 19.999600 42.830175
1356   0  1  8.565364 19.999561 45.685564
1357   0  1  8.565371 19.999592 48.540833
1358   0  1  8.565436 19.999648 51.396009
1359   0  1  8.565501 19.999694 54.251134
1360   0  1  8.565507 22.855140  0.000001
1361   0  1  8.565477 22.855125  2.855091
1362   0  1  8.565400 22.855085  5.710199
1363   0  1  8.565319 22.855034  8.565356
1364   0  1  8.565300 22.855000 11.420609
1365   0  1  8.565400 22.855021 14.275990
1366   0  1  8.565618 22.855127 17.131473
1367   0  1  8.565888 22.855317 19.986981
1368   0  1  8.566126 22.855545 22.842440
1369   0  1  8.566278 22.855728 25.697812
1370   0  1  8.566329 22.855798 28.553121
1371   0  1  8.566278 22.855728 31.408429
1372   0  1  8.566126 22.855545 34.263801
1373   0  1  8.565888 22.855317 37.119260
1374   0  1  8.565618 22.855127 39.974768
1375   0  1  8.565400 22.855021 42.830251
1376   0  1  8.565300 22.855000 45.685632
1377   0  1  8.565319 22.855034 48.540885
1378   0  1  8.565400 22.855085 51.396043
1379   0  1  8.565477 22.855125 54.251150
1380   0  1  8.565468 25.710576  0.000001
1381   0  1  8.565434 25.710565  2.855074
1382   0  1  8.565346 25.710535  5.710163
1383   0  1  8.565248 25.710495  8.565299
1384   0  1  8.565216 25.710467 11.420534
1385   0  1  8.565318 25.710480 14.275902
1386   0  1  8.565558 25.710559 17.131378
1387   0  1  8.565861 25.710711 19.986883
1388   0  1  8.566134 25.710908 22.842350
1389   0  1  8.566313 25.711085 25.697758
1390   0  1  8.566375 25.711157 28.553121
1391   0  1  8.566313 25.711085 31.408483
1392   0  1  8.566134 25.710908 34.263891
1393   0  1  8.565861 25.710711 37.119358
1394   0  1  8.565558 25.710559 39.974863
1395   0  1  8.565318 25.710480 42.830339
1396   0  1  8.565216 25.710467 45.685708
1397   0  1  8.565248 25.710495 48.540942
1398   0  1  8.565346 25.710535 51.396078
1399   0  1  8.565434 25.710565 54.251167
1400   0  1  8.565417 28.566023  0.000001
1401   0  1  8.565379 28.566017  2.855058
1402   0  1  8.565279 28.566001  5.710129
1403   0  1  8.565165 28.565981  8.565243
1404   0  1  8.565117 28.565969 11.420455
1405   0  1  8.565213 28.565983 14.275805
1406   0  1  8.565459 28.566040 17.131268
1407   0  1  8.565777 28.566143 19.986762
1408   0  1  8.566065 28.566274 22.842232
1409   0  1  8.566258 28.566394 25.697677
1410   0  1  8.566325 28.566446 28.553121
1411   0  1  8.566258 28.566394 31.408564
1412   0  1  8.566065 28.566274 34.264009
1413   0  1  8.565777 28.566143 37.119479
1414   0  1  8.565459 28.566040 39.974974
1415   0  1  8.565213 28.565983 42.830436
1416   0  1  8.565117 28.565969 45.685787
1417   0  1  8.565165 28.565981 48.540999
1418   0  1  8.565279 28.566001 51.396113
1419   0  1  8.565379 28.566017 54.251183
1420   0  1  8.565355 31.421481  0.000001
1421   0  1  8.565314 31.421482  2.855043
1422   0  1  8.565204 31.421486  5.710096
1423   0  1  8.565074 31.421495  8.565187
1424   0  1  8.565006 31.421510 11.420374
1425   0  1  8.565082 31.421537 14.275701
1426   0  1  8.565314 31.421578 17.131147
1427   0  1  8.565623 31.421627 19.986637
1428   0  1  8.565906 31.421671 22.842123
1429   0  1  8.566095 31.421695 25.697611
1430   0  1  8.566161 31.421699 28.553121
1431   0  1  8.566095 31.421695 31.408630
1432   0  1  8.565906 31.421671 34.264119
1433   0  1  8.565623 31.421627 37.119604
1434   0  1  8.565314 31.421578 39.975095
1435   0  1  8.565082 31.421537 42.830540
1436   0  1  8.565006 31.421510 45.685867
1437   0  1  8.565074 31.421495 48.541054
1438   0  1  8.565204 31.421486 51.396146
1439   0  1  8.565314 31.421482 54.251198
1440   0  1  8.565287 34.276952  0.000001
1441   0  1  8.565243 34.276962  2.855029
1442   0  1  8.565124 34.276991  5.710064
1443   0  1  8.564978 34.277037  8.565135
1444   0  1  8.564886 34.277090 11.420297
1445   0  1  8.564931 34.277139 14.275599
1446   0  1  8.565127 34.277167 17.131033
1447   0  1  8.565403 34.277160 19.986534
1448   0  1  8.565660 34.277111 22.842058
1449   0  1  8.565832 34.277042 25.697590
1450   0  1  8.565891 34.277010 28.553121
1451   0  1  8.565832 34.277042 31.408652
1452   0  1  8.565660 34.277111 34.264183
1453   0  1  8.565403 34.277160 37.119707
1454   0  1  8.565127 34.277167 39.975209
1455   0  1  8.564931 34.277139 42.830642
1456   0  1  8.564886 34.277090 45.685945
1457   0  1  8.564978 34.277037 48.541107
1458   0  1  8.565124 34.276991 51.396177
1459   0  1  8.565243 34.276962 54.251213
1460   0  1  8.565214 37.132436  0.000001
1461   0  1  8.565167 37.132457  2.855015
1462   0  1  8.565042 37.132515  5.710034
1463   0  1  8.564882 37.132603  8.565086
1464   0  1  8.564769 37.132698 11.420228
1465   0  1  8.564778 37.132768 14.275517
1466   0  1  8.564927 37.132777 17.130954
1467   0  1  8.565151 37.132711 19.986487
1468   0  1  8.565364 37.132588 22.842051
1469   0  1  8.565506 37.132476 25.697597
1470   0  1  8.565555 37.132432 28.553121
1471   0  1  8.565506 37.132476 31.408644
1472   0  1  8.565364 37.132588 34.264190
1473   0  1  8.565151 37.132711 37.119755
1474   0  1  8.564927 37.132777 39.975287
1475   0  1  8.564778 37.132768 42.830725
1476   0  1  8.564769 37.132698 45.686013
1477   0  1  8.564882 37.132603 48.541155
1478   0  1  8.565042 37.132515 51.396207
1479   0  1  8.565167 37.132457 54.251226
1480   0  1  8.565131 39.987937  0.000001
1481   0  1  8.565083 39.987968  2.855001
1482   0  1  8.564954 39.988055  5.710005
1483   0  1  8.564791 39.988181  8.565042
1484   0  1  8.564669 39.988307 11.420178
1485   0  1  8.564657 39.988374 14.275477
1486   0  1  8.564765 39.988345 17.130945
1487   0  1  8.564937 39.988227 19.986512
1488   0  1  8.565096 39.988082 22.842084
1489   0  1  8.565201 39.987971 25.697618
1490   0  1  8.565237 39.987930 28.553121
1491   0  1  8.565201 39.987971 31.408623
1492   0  1  8.565096 39.988082 34.264157
1493   0  1  8.564937 39.988227 37.119729
1494   0  1  8.564765 39.988345 39.975296
1495   0  1  8.564657 39.988374 42.830764
1496   0  1  8.564669 39.988307 45.686063
1497   0  1  8.564791 39.988181 48.541199
1498   0  1  8.564954 39.988055 51.396236
1499   0  1  8.565083 39.987968 54.251241
1500   0  1  8.565017 42.843470  0.000001
1501   0  1  8.564970 42.843509  2.854981
1502   0  1  8.564845 42.843617  5.709964
1503   0  1  8.564695 42.843764  8.564989
1504   0  1  8.564603 42.843875 11.420147
1505   0  1  8.564612 42.843882 14.275506
1506   0  1  8.564710 42.843788 17.131028
1507   0  1  8.564839 42.843651 19.986600
1508   0  1  8.564952 42.843522 22.842147
1509   0  1  8.565025 42.843433 25.697649
1510   0  1  8.565049 42.843402 28.553121
1511   0  1  8.565025 42.843433 31.408592
1512   0  1  8.564952 42.843522 34.264094
1513   0  1  8.564839 42.843651 37.119642
1514   0  1  8.564710 42.843788 39.975214
1515   0  1  8.564612 42.843882 42.830735
1516   0  1  8.564603 42.843875 45.686094
1517   0  1  8.564695 42.843764 48.541252
1518   0  1  8.564845 42.843617 51.396277
1519   0  1  8.564970 42.843509 54.251261
1520   0  1  8.564805 45.699081  0.000001
1521   0  1  8.564762 45.699122  2.854939
1522   0  1  8.564653 45.699232  5.709878
1523   0  1  8.564544 45.699357  8.564872
1524   0  1  8.564579 45.699339 11.420137
1525   0  1  8.564678 45.699208 14.275631
1526   0  1  8.564793 45.699066 17.131188
1527   0  1  8.564901 45.698939 19.986733
1528   0  1  8.564985 45.698838 22.842234
1529   0  1  8.565038 45.698775 25.697690
1530   0  1  8.565056 45.698754 28.553121
1531   0  1  8.565038 45.698775 31.408551
1532   0  1  8.564985 45.698838 34.264008
1533   0  1  8.564901 45.698939 37.119508
1534   0  1  8.564793 45.699066 39.975053
1535   0  1  8.564678 45.699208 42.830611
1536   0  1  8.564579 45.699339 45.686104
1537   0  1  8.564544 45.699357 48.541369
1538   0  1  8.564653 45.699232 51.396364
1539   0  1  8.564762 45.699122 54.251302
1540   0  1  8.564420 48.554776  0.000001
1541   0  1  8.564383 48.554812  2.854856
1542   0  1  8.564299 48.554897  5.709699
1543   0  1  8.564244 48.554951  8.564591
1544   0  1  8.564630 48.554565 11.420232
1545   0  1  8.564852 48.554344 14.275840
1546   0  1  8.564993 48.554203 17.131390
1547   0  1  8.565095 48.554101 19.986885
1548   0  1  8.565167 48.554029 22.842331
1549   0  1  8.565210 48.553985 25.697737
1550   0  1  8.565224 48.553971 28.553121
1551   0  1  8.565210 48.553985 31.408505
1552   0  1  8.565167 48.554029 34.263910
1553   0  1  8.565095 48.554101 37.119356
1554   0  1  8.564993 48.554203 39.974852
1555   0  1  8.564852 48.554344 42.830401
1556   0  1  8.564630 48.554565 45.686010
1557   0  1  8.564244 48.554951 48.541650
1558   0  1  8.564299 48.554897 51.396543
1559   0  1  8.564383 48.554812 54.251386
1560   0  1  8.564599 51.409798  0.000001
1561   0  1  8.564524 51.409866  2.854831
1562   0  1  8.564293 51.410030  5.709532
1563   0  1  8.564391 51.409788  8.564741
1564   0  1  8.564829 51.409531 11.420452
1565   0  1  8.565088 51.409370 14.276069
1566   0  1  8.565240 51.409269 17.131583
1567   0  1  8.565341 51.409200 19.987028
1568   0  1  8.565410 51.409152 22.842422
1569   0  1  8.565450 51.409124 25.697780
1570   0  1  8.565463 51.409114 28.553121
1571   0  1  8.565450 51.409124 31.408461
1572   0  1  8.565410 51.409152 34.263820
1573   0  1  8.565341 51.409200 37.119213
1574   0  1  8.565240 51.409269 39.974658
1575   0  1  8.565088 51.409370 42.830172
1576   0  1  8.564829 51.409530 45.685789
1577   0  1  8.564391 51.409788 48.541500
1578   0  1  8.564293 51.410030 51.396709
1579   0  1  8.564524 51.409866 54.251411
1580   0  1  8.565323 54.264443  0.000001
1581   0  1  8.565188 54.264501  2.855005
1582   0  1  8.564619 54.264642  5.709762
1583   0  1  8.564572 54.264580  8.564907
1584   0  1  8.565035 54.264459 11.420645
1585   0  1  8.565311 54.264381 14.276253
1586   0  1  8.565468 54.264331 17.131735
1587   0  1  8.565570 54.264296 19.987140
1588   0  1  8.565637 54.264272 22.842494
1589   0  1  8.565677 54.264257 25.697816
1590   0  1  8.565690 54.264252 28.553121
1591   0  1  8.565677 54.264257 31.408426
1592   0  1  8.565637 54.264272 34.263747
1593   0  1  8.565570 54.264296 37.119101
1594   0  1  8.565468 54.264331 39.974506
1595   0  1  8.565311 54.264381 42.829988
1596   0  1  8.565035 54.264459 45.685596
1597   0  1  8.564572 54.264580 48.541334
1598   0  1  8.564619 54.264642 51.396479
1599   0  1  8.565188 54.264501 54.251236
1600   0  1 11.420897  0.013150  0.000001
1601   0  1 11.420794  0.013154  2.855176
1602   0  1 11.420561  0.013166  5.710288
1603   0  1 11.420382  0.013181  8.565408
1604   0  1 11.420459  0.013193 11.420747
1605   0  1 11.420693  0.013200 14.276259
1606   0  1 11.420891  0.013202 17.131740
1607   0  1 11.421035  0.013199 19.987153
1608   0  1 11.421133  0.013195 22.842508
1609   0  1 11.421191  0.013192 25.697825
1610   0  1 11.421210  0.013190 28.553121
1611   0  1 11.421191  0.013192 31.408417
1612   0  1 11.421133  0.013195 34.263733
1613   0  1 11.421035  0.013199 37.119088
1614   0  1 11.420891  0.013202 39.974501
1615   0  1 11.420693  0.013200 42.829982
1616   0  1 11.420459  0.013193 45.685495
1617   0  1 11.420382  0.013181 48.540833
1618   0  1 11.420561  0.013166 51.395953
1619   0  1 11.420794  0.013154 54.251065
1620   0  1 11.420839  2.868158  0.000001
1621   0  1 11.420774  2.868136  2.855166
1622   0  1 11.420573  2.868101  5.710288
1623   0  1 11.420427  2.868116  8.565435
1624   0  1 11.420524  2.868176 11.420791
1625   0  1 11.420770  2.868251 14.276310
1626   0  1 11.420978  2.868313 17.131791
1627   0  1 11.421129  2.868356 19.987199
1628   0  1 11.421233  2.868384 22.842543
1629   0  1 11.421293  2.868399 25.697843
1630   0  1 11.421313  2.868404 28.553121
1631   0  1 11.421293  2.868399 31.408398
1632   0  1 11.421233  2.868384 34.263698
1633   0  1 11.421129  2.868356 37.119042
1634   0  1 11.420978  2.868313 39.974450
1635   0  1 11.420770  2.868251 42.829932
1636   0  1 11.420524  2.868176 45.685450
1637   0  1 11.420427  2.868116 48.540806
1638   0  1 11.420573  2.868101 51.395953
1639   0  1 11.420774  2.868136 54.251075
1640   0  1 11.420619  5.723109  0.000001
1641   0  1 11.420580  5.723082  2.855111
1642   0  1 11.420478  5.723032  5.710213
1643   0  1 11.420401  5.723059  8.565382
1644   0  1 11.420525  5.723175 11.420758
1645   0  1 11.420777  5.723323 14.276289
1646   0  1 11.420995  5.723449 17.131786
1647   0  1 11.421159  5.723543 19.987207
1648   0  1 11.421271  5.723606 22.842556
1649   0  1 11.421338  5.723642 25.697852
1650   0  1 11.421360  5.723654 28.553121
1651   0  1 11.421338  5.723642 31.408389
1652   0  1 11.421271  5.723606 34.263686
1653   0  1 11.421159  5.723543 37.119034
1654   0  1 11.420995  5.723449 39.974455
1655   0  1 11.420777  5.723323 42.829952
1656   0  1 11.420525  5.723175 45.685483
1657   0  1 11.420401  5.723059 48.540859
1658   0  1 11.420478  5.723032 51.396028
1659   0  1 11.420580  5.723082 54.251130
1660   0  1 11.420420  8.578086  0.000001
1661   0  1 11.420402  8.578069  2.855078
1662   0  1 11.420361  8.578036  5.710162
1663   0  1 11.420343  8.578043  8.565300
1664   0  1 11.420488  8.578205 11.420676
1665   0  1 11.420736  8.578412 14.276211
1666   0  1 11.420963  8.578599 17.131733
1667   0  1 11.421142  8.578747 19.987182
1668   0  1 11.421269  8.578851 22.842550
1669   0  1 11.421345  8.578911 25.697853
1670   0  1 11.421370  8.578931 28.553121
1671   0  1 11.421345  8.578911 31.408388
1672   0  1 11.421269  8.578851 34.263691
1673   0  1 11.421142  8.578747 37.119059
1674   0  1 11.420963  8.578599 39.974509
1675   0  1 11.420736  8.578412 42.830031
1676   0  1 11.420488  8.578205 45.685566
1677   0  1 11.420343  8.578043 48.540942
1678   0  1 11.420361  8.578036 51.396079
1679   0  1 11.420402  8.578069 54.251163
1680   0  1 11.420446 11.433312  0.000001
1681   0  1 11.420432 11.433298  2.855072
1682   0  1 11.420399 11.433265  5.710159
1683   0  1 11.420388 11.433254  8.565304
1684   0  1 11.420466 11.433332 11.420594
1685   0  1 11.420676 11.433542 14.276099
1686   0  1 11.420902 11.433768 17.131643
1687   0  1 11.421102 11.433968 19.987132
1688   0  1 11.421251 11.434117 22.842532
1689   0  1 11.421341 11.434206 25.697849
1690   0  1 11.421370 11.434236 28.553121
1691   0  1 11.421341 11.434206 31.408392
1692   0  1 11.421251 11.434117 34.263710
1693   0  1 11.421102 11.433968 37.119109
1694   0  1 11.420902 11.433768 39.974599
1695   0  1 11.420676 11.433542 42.830142
1696   0  1 11.420466 11.433332 45.685648
1697   0  1 11.420388 11.433254 48.540937
1698   0  1 11.420399 11.433265 51.396082
1699   0  1 11.420432 11.433298 54.251169
1700   0  1 11.420604 14.288756  0.000001
1701   0  1 11.420583 14.288737  2.855074
1702   0  1 11.420529 14.288686  5.710162
1703   0  1 11.420478 14.288634  8.565300
1704   0  1 11.420489 14.288635 11.420553
1705   0  1 11.420615 14.288752 14.275983
1706   0  1 11.420826 14.288965 17.131529
1707   0  1 11.421050 14.289203 19.987064
1708   0  1 11.421231 14.289401 22.842505
1709   0  1 11.421342 14.289527 25.697844
1710   0  1 11.421378 14.289569 28.553121
1711   0  1 11.421342 14.289527 31.408397
1712   0  1 11.421231 14.289401 34.263736
1713   0  1 11.421050 14.289203 37.119178
1714   0  1 11.420826 14.288965 39.974712
1715   0  1 11.420615 14.288752 42.830259
1716   0  1 11.420489 14.288635 45.685689
1717   0  1 11.420478 14.288634 48.540941
1718   0  1 11.420529 14.288686 51.396079
1719   0  1 11.420583 14.288737 54.251167
1720   0  1 11.420709 17.144223  0.000001
1721   0  1 11.420680 17.144200  2.855067
1722   0  1 11.420604 17.144137  5.710143
1723   0  1 11.420512 17.144055  8.565257
1724   0  1 11.420465 17.143999 11.420470
1725   0  1 11.420533 17.144035 14.275851
1726   0  1 11.420736 17.144207 17.131396
1727   0  1 11.421002 17.144468 19.986981
1728   0  1 11.421233 17.144720 22.842475
1729   0  1 11.421377 17.144892 25.697840
1730   0  1 11.421424 17.144951 28.553121
1731   0  1 11.421377 17.144892 31.408401
1732   0  1 11.421233 17.144720 34.263766
1733   0  1 11.421002 17.144468 37.119260
1734   0  1 11.420736 17.144207 39.974846
1735   0  1 11.420533 17.144035 42.830391
1736   0  1 11.420465 17.143999 45.685772
1737   0  1 11.420512 17.144055 48.540984
1738   0  1 11.420604 17.144137 51.396098
1739   0  1 11.420680 17.144200 54.251174
1740   0  1 11.420753 19.999677  0.000001
1741   0  1 11.420719 19.999655  2.855054
1742   0  1 11.420623 19.999590  5.710111
1743   0  1 11.420495 19.999497  8.565193
1744   0  1 11.420400 19.999408 11.420361
1745   0  1 11.420430 19.999392 14.275700
1746   0  1 11.420643 19.999517 17.131242
1747   0  1 11.420975 19.999788 19.986880
1748   0  1 11.421286 20.000100 22.842439
1749   0  1 11.421485 20.000334 25.697836
1750   0  1 11.421550 20.000419 28.553121
1751   0  1 11.421485 20.000334 31.408405
1752   0  1 11.421286 20.000100 34.263802
1753   0  1 11.420975 19.999788 37.119361
1754   0  1 11.420643 19.999517 39.975000
1755   0  1 11.420430 19.999392 42.830541
1756   0  1 11.420400 19.999408 45.685881
1757   0  1 11.420495 19.999497 48.541048
1758   0  1 11.420623 19.999590 51.396130
1759   0  1 11.420719 19.999655 54.251187
1760   0  1 11.420759 22.855127  0.000001
1761   0  1 11.420718 22.855107  2.855040
1762   0  1 11.420604 22.855050  5.710075
1763   0  1 11.420446 22.854962  8.565124
1764   0  1 11.420309 22.854869 11.420246
1765   0  1 11.420314 22.854827 14.275545
1766   0  1 11.420548 22.854914 17.131075
1767   0  1 11.420956 22.855164 19.986740
1768   0  1 11.421370 22.855519 22.842363
1769   0  1 11.421644 22.855820 25.697812
1770   0  1 11.421735 22.855936 28.553121
1771   0  1 11.421644 22.855820 31.408429
1772   0  1 11.421370 22.855519 34.263878
1773   0  1 11.420956 22.855163 37.119501
1774   0  1 11.420548 22.854914 39.975167
1775   0  1 11.420314 22.854827 42.830696
1776   0  1 11.420309 22.854869 45.685995
1777   0  1 11.420446 22.854962 48.541117
1778   0  1 11.420604 22.855050 51.396166
1779   0  1 11.420718 22.855107 54.251201
1780   0  1 11.420736 25.710579  0.000001
1781   0  1 11.420691 25.710565  2.855025
1782   0  1 11.420561 25.710522  5.710040
1783   0  1 11.420374 25.710455  8.565056
1784   0  1 11.420201 25.710381 11.420135
1785   0  1 11.420181 25.710344 14.275393
1786   0  1 11.420433 25.710406 17.130900
1787   0  1 11.420901 25.710609 19.986561
1788   0  1 11.421394 25.710929 22.842203
1789   0  1 11.421743 25.711255 25.697724
1790   0  1 11.421864 25.711393 28.553121
1791   0  1 11.421743 25.711255 31.408517
1792   0  1 11.421394 25.710929 34.264039
1793   0  1 11.420901 25.710609 37.119680
1794   0  1 11.420433 25.710406 39.975341
1795   0  1 11.420181 25.710344 42.830848
1796   0  1 11.420201 25.710381 45.686106
1797   0  1 11.420374 25.710455 48.541185
1798   0  1 11.420561 25.710522 51.396201
1799   0  1 11.420691 25.710565 54.251216
1800   0  1 11.420693 28.566039  0.000001
1801   0  1 11.420643 28.566032  2.855011
1802   0  1 11.420498 28.566013  5.710005
1803   0  1 11.420284 28.565982  8.564990
1804   0  1 11.420075 28.565950 11.420027
1805   0  1 11.420026 28.565942 14.275242
1806   0  1 11.420273 28.566001 17.130717
1807   0  1 11.420766 28.566148 19.986356
1808   0  1 11.421294 28.566369 22.841987
1809   0  1 11.421673 28.566596 25.697560
1810   0  1 11.421811 28.566706 28.553121
1811   0  1 11.421673 28.566596 31.408682
1812   0  1 11.421294 28.566369 34.264254
1813   0  1 11.420766 28.566148 37.119885
1814   0  1 11.420273 28.566001 39.975524
1815   0  1 11.420026 28.565942 42.830999
1816   0  1 11.420075 28.565950 45.686215
1817   0  1 11.420284 28.565982 48.541251
1818   0  1 11.420498 28.566013 51.396237
1819   0  1 11.420643 28.566032 54.251231
1820   0  1 11.420632 31.421512  0.000001
1821   0  1 11.420578 31.421516  2.854995
1822   0  1 11.420420 31.421526  5.709968
1823   0  1 11.420181 31.421545  8.564924
1824   0  1 11.419937 31.421575 11.419921
1825   0  1 11.419845 31.421624 14.275092
1826   0  1 11.420056 31.421700 17.130529
1827   0  1 11.420523 31.421797 19.986146
1828   0  1 11.421033 31.421887 22.841790
1829   0  1 11.421395 31.421926 25.697432
1830   0  1 11.421521 31.421919 28.553121
1831   0  1 11.421395 31.421926 31.408810
1832   0  1 11.421033 31.421887 34.264451
1833   0  1 11.420523 31.421797 37.120095
1834   0  1 11.420056 31.421700 39.975712
1835   0  1 11.419845 31.421624 42.831149
1836   0  1 11.419937 31.421575 45.686320
1837   0  1 11.420181 31.421545 48.541317
1838   0  1 11.420420 31.421526 51.396273
1839   0  1 11.420578 31.421516 54.251247
1840   0  1 11.420557 34.277002  0.000001
1841   0  1 11.420500 34.277017  2.854977
1842   0  1 11.420330 34.277065  5.709930
1843   0  1 11.420071 34.277144  8.564860
1844   0  1 11.419793 34.277253 11.419824
1845   0  1 11.419652 34.277376 14.274957
1846   0  1 11.419795 34.277484 17.130362
1847   0  1 11.420183 34.277532 19.985983
1848   0  1 11.420622 34.277477 22.841689
1849   0  1 11.420931 34.277339 25.697418
1850   0  1 11.421037 34.277270 28.553121
1851   0  1 11.420931 34.277339 31.408824
1852   0  1 11.420622 34.277477 34.264552
1853   0  1 11.420184 34.277532 37.120259
1854   0  1 11.419795 34.277484 39.975879
1855   0  1 11.419652 34.277376 42.831285
1856   0  1 11.419793 34.277253 45.686418
1857   0  1 11.420071 34.277144 48.541381
1858   0  1 11.420330 34.277065 51.396311
1859   0  1 11.420500 34.277017 54.251264
1860   0  1 11.420470 37.132511  0.000001
1861   0  1 11.420410 37.132539  2.854959
1862   0  1 11.420234 37.132625  5.709893
1863   0  1 11.419964 37.132769  8.564803
1864   0  1 11.419665 37.132957 11.419750
1865   0  1 11.419480 37.133151 14.274869
1866   0  1 11.419544 37.133276 17.130277
1867   0  1 11.419828 37.133258 19.985940
1868   0  1 11.420162 37.133086 22.841719
1869   0  1 11.420391 37.132906 25.697451
1870   0  1 11.420468 37.132832 28.553121
1871   0  1 11.420391 37.132906 31.408790
1872   0  1 11.420162 37.133086 34.264523
1873   0  1 11.419828 37.133258 37.120301
1874   0  1 11.419544 37.133276 39.975964
1875   0  1 11.419480 37.133151 42.831372
1876   0  1 11.419665 37.132957 45.686492
1877   0  1 11.419964 37.132769 48.541438
1878   0  1 11.420234 37.132625 51.396349
1879   0  1 11.420410 37.132539 54.251283
1880   0  1 11.420366 39.988041  0.000001
1881   0  1 11.420307 39.988080  2.854941
1882   0  1 11.420134 39.988199  5.709860
1883   0  1 11.419871 39.988391  8.564766
1884   0  1 11.419582 39.988630 11.419725
1885   0  1 11.419392 39.988844 14.274881
1886   0  1 11.419412 39.988931 17.130343
1887   0  1 11.419608 39.988834 19.986056
1888   0  1 11.419827 39.988656 22.841809
1889   0  1 11.419976 39.988509 25.697495
1890   0  1 11.420026 39.988454 28.553121
1891   0  1 11.419976 39.988509 31.408747
1892   0  1 11.419827 39.988656 34.264432
1893   0  1 11.419608 39.988834 37.120185
1894   0  1 11.419412 39.988931 39.975898
1895   0  1 11.419392 39.988844 42.831361
1896   0  1 11.419582 39.988630 45.686516
1897   0  1 11.419871 39.988391 48.541475
1898   0  1 11.420134 39.988199 51.396381
1899   0  1 11.420307 39.988080 54.251300
1900   0  1 11.420235 42.843587  0.000001
1901   0  1 11.420181 42.843633  2.854926
1902   0  1 11.420027 42.843766  5.709838
1903   0  1 11.419801 42.843968  8.564758
1904   0  1 11.419572 42.844188 11.419772
1905   0  1 11.419453 42.844324 14.275031
1906   0  1 11.419496 42.844306 17.130576
1907   0  1 11.419633 42.844184 19.986260
1908   0  1 11.419775 42.844043 22.841936
1909   0  1 11.419870 42.843941 25.697551
1910   0  1 11.419902 42.843905 28.553121
1911   0  1 11.419870 42.843941 31.408690
1912   0  1 11.419775 42.844043 34.264305
1913   0  1 11.419633 42.844184 37.119982
1914   0  1 11.419496 42.844306 39.975665
1915   0  1 11.419453 42.844324 42.831210
1916   0  1 11.419572 42.844188 45.686469
1917   0  1 11.419801 42.843968 48.541483
1918   0  1 11.420027 42.843766 51.396403
1919   0  1 11.420181 42.843633 54.251315
1920   0  1 11.420089 45.699106  0.000001
1921   0  1 11.420045 45.699150  2.854918
1922   0  1 11.419923 45.699272  5.709832
1923   0  1 11.419761 45.699434  8.564785
1924   0  1 11.419647 45.699549 11.419895
1925   0  1 11.419674 45.699521 14.275308
1926   0  1 11.419771 45.699425 17.130883
1927   0  1 11.419893 45.699302 19.986501
1928   0  1 11.420003 45.699193 22.842086
1929   0  1 11.420074 45.699122 25.697620
1930   0  1 11.420098 45.699097 28.553121
1931   0  1 11.420074 45.699122 31.408621
1932   0  1 11.420003 45.699193 34.264155
1933   0  1 11.419894 45.699302 37.119740
1934   0  1 11.419771 45.699425 39.975358
1935   0  1 11.419674 45.699521 42.830933
1936   0  1 11.419647 45.699549 45.686346
1937   0  1 11.419761 45.699434 48.541456
1938   0  1 11.419923 45.699272 51.396409
1939   0  1 11.420045 45.699150 54.251324
1940   0  1 11.420114 48.554390  0.000001
1941   0  1 11.420073 48.554434  2.854939
1942   0  1 11.419964 48.554543  5.709878
1943   0  1 11.419839 48.554651  8.564872
1944   0  1 11.419856 48.554616 11.420137
1945   0  1 11.419988 48.554517 14.275631
1946   0  1 11.420129 48.554402 17.131188
1947   0  1 11.420257 48.554294 19.986733
1948   0  1 11.420357 48.554210 22.842234
1949   0  1 11.420420 48.554157 25.697690
1950   0  1 11.420442 48.554140 28.553121
1951   0  1 11.420420 48.554157 31.408551
1952   0  1 11.420357 48.554210 34.264008
1953   0  1 11.420257 48.554294 37.119508
1954   0  1 11.420129 48.554402 39.975053
1955   0  1 11.419988 48.554517 42.830611
1956   0  1 11.419856 48.554616 45.686104
1957   0  1 11.419839 48.554651 48.541369
1958   0  1 11.419964 48.554543 51.396364
1959   0  1 11.420073 48.554434 54.251302
1960   0  1 11.420397 51.409405  0.000001
1961   0  1 11.420343 51.409452  2.855007
1962   0  1 11.420198 51.409553  5.710007
1963   0  1 11.420055 51.409598  8.565086
1964   0  1 11.420106 51.409552 11.420403
1965   0  1 11.420293 51.409458 14.275917
1966   0  1 11.420463 51.409365 17.131441
1967   0  1 11.420597 51.409285 19.986923
1968   0  1 11.420695 51.409225 22.842356
1969   0  1 11.420755 51.409188 25.697749
1970   0  1 11.420775 51.409176 28.553121
1971   0  1 11.420755 51.409188 31.408492
1972   0  1 11.420695 51.409225 34.263885
1973   0  1 11.420597 51.409285 37.119318
1974   0  1 11.420463 51.409365 39.974800
1975   0  1 11.420293 51.409458 42.830324
1976   0  1 11.420106 51.409552 45.685838
1977   0  1 11.420055 51.409598 48.541155
1978   0  1 11.420198 51.409553 51.396234
1979   0  1 11.420343 51.409452 54.251234
1980   0  1 11.420723 54.264376  0.000001
1981   0  1 11.420650 54.264410  2.855110
1982   0  1 11.420429 54.264476  5.710181
1983   0  1 11.420254 54.264501  8.565286
1984   0  1 11.420318 54.264477 11.420616
1985   0  1 11.420535 54.264426 14.276129
1986   0  1 11.420721 54.264374 17.131625
1987   0  1 11.420860 54.264330 19.987063
1988   0  1 11.420957 54.264297 22.842447
1989   0  1 11.421015 54.264276 25.697794
1990   0  1 11.421034 54.264269 28.553121
1991   0  1 11.421015 54.264276 31.408447
1992   0  1 11.420957 54.264297 34.263794
1993   0  1 11.420860 54.264330 37.119178
1994   0  1 11.420721 54.264374 39.974616
1995   0  1 11.420535 54.264426 42.830112
1996   0  1 11.420318 54.264477 45.685625
1997   0  1 11.420254 54.264501 48.540955
1998   0  1 11.420429 54.264476 51.396060
1999   0  1 11.420650 54.264410 54.251131
2000   0  1 14.276184  0.013148  0.000001
2001   0  1 14.276146  0.013153  2.855200
2002   0  1 14.276051  0.013163  5.710397
2003   0  1 14.275953  0.013176  8.565603
2004   0  1 14.275935  0.013185 11.420876
2005   0  1 14.276039  0.013189 14.276256
2006   0  1 14.276205  0.013187 17.131691
2007   0  1 14.276360  0.013181 19.987106
2008   0  1 14.276479  0.013173 22.842476
2009   0  1 14.276552  0.013167 25.697809
2010   0  1 14.276577  0.013165 28.553121
2011   0  1 14.276552  0.013167 31.408432
2012   0  1 14.276479  0.013173 34.263765
2013   0  1 14.276360  0.013181 37.119136
2014   0  1 14.276205  0.013187 39.974550
2015   0  1 14.276039  0.013189 42.829985
2016   0  1 14.275935  0.013185 45.685365
2017   0  1 14.275953  0.013176 48.540638
2018   0  1 14.276051  0.013163 51.395845
2019   0  1 14.276146  0.013153 54.251042
2020   0  1 14.276175  2.868188  0.000001
2021   0  1 14.276145  2.868179  2.855201
2022   0  1 14.276062  2.868166  5.710405
2023   0  1 14.275979  2.868169  8.565626
2024   0  1 14.275978  2.868198 11.420915
2025   0  1 14.276097  2.868249 14.276307
2026   0  1 14.276275  2.868305 17.131747
2027   0  1 14.276441  2.868351 19.987158
2028   0  1 14.276567  2.868382 22.842517
2029   0  1 14.276645  2.868400 25.697831
2030   0  1 14.276671  2.868405 28.553121
2031   0  1 14.276645  2.868400 31.408410
2032   0  1 14.276567  2.868382 34.263724
2033   0  1 14.276441  2.868351 37.119083
2034   0  1 14.276275  2.868305 39.974495
2035   0  1 14.276097  2.868249 42.829934
2036   0  1 14.275978  2.868198 45.685326
2037   0  1 14.275979  2.868169 48.540615
2038   0  1 14.276062  2.868166 51.395836
2039   0  1 14.276145  2.868179 54.251040
2040   0  1 14.276083  5.723232  0.000001
2041   0  1 14.276059  5.723215  2.855165
2042   0  1 14.275997  5.723182  5.710341
2043   0  1 14.275934  5.723176  8.565557
2044   0  1 14.275950  5.723225 11.420859
2045   0  1 14.276081  5.723323 14.276274
2046   0  1 14.276273  5.723439 17.131738
2047   0  1 14.276456  5.723541 19.987167
2048   0  1 14.276597  5.723615 22.842533
2049   0  1 14.276684  5.723658 25.697843
2050   0  1 14.276713  5.723672 28.553121
2051   0  1 14.276684  5.723658 31.408398
2052   0  1 14.276597  5.723615 34.263708
2053   0  1 14.276456  5.723541 37.119074
2054   0  1 14.276273  5.723439 39.974503
2055   0  1 14.276081  5.723323 42.829967
2056   0  1 14.275950  5.723225 45.685382
2057   0  1 14.275934  5.723176 48.540685
2058   0  1 14.275997  5.723182 51.395900
2059   0  1 14.276059  5.723215 54.251076
2060   0  1 14.275959  8.578303  0.000001
2061   0  1 14.275939  8.578283  2.855116
2062   0  1 14.275890  8.578239  5.710247
2063   0  1 14.275845  8.578214  8.565430
2064   0  1 14.275869  8.578265 11.420727
2065   0  1 14.276004  8.578397 14.276163
2066   0  1 14.276210  8.578569 17.131665
2067   0  1 14.276416  8.578731 19.987136
2068   0  1 14.276579  8.578854 22.842529
2069   0  1 14.276681  8.578926 25.697846
2070   0  1 14.276716  8.578950 28.553121
2071   0  1 14.276681  8.578926 31.408395
2072   0  1 14.276579  8.578854 34.263712
2073   0  1 14.276416  8.578731 37.119105
2074   0  1 14.276210  8.578569 39.974576
2075   0  1 14.276004  8.578397 42.830079
2076   0  1 14.275869  8.578265 45.685514
2077   0  1 14.275845  8.578214 48.540811
2078   0  1 14.275890  8.578239 51.395994
2079   0  1 14.275939  8.578283 54.251125
2080   0  1 14.275890 11.433470  0.000001
2081   0  1 14.275871 11.433448  2.855074
2082   0  1 14.275820 11.433395  5.710162
2083   0  1 14.275768 11.433344  8.565300
2084   0  1 14.275769 11.433355 11.420553
2085   0  1 14.275886 11.433481 14.275983
2086   0  1 14.276099 11.433692 17.131529
2087   0  1 14.276337 11.433916 19.987064
2088   0  1 14.276535 11.434097 22.842505
2089   0  1 14.276661 11.434208 25.697844
2090   0  1 14.276703 11.434244 28.553121
2091   0  1 14.276661 11.434208 31.408397
2092   0  1 14.276535 11.434097 34.263736
2093   0  1 14.276337 11.433916 37.119177
2094   0  1 14.276099 11.433692 39.974712
2095   0  1 14.275886 11.433481 42.830259
2096   0  1 14.275769 11.433355 45.685689
2097   0  1 14.275768 11.433344 48.540941
2098   0  1 14.275820 11.433395 51.396079
2099   0  1 14.275871 11.433448 54.251167
2100   0  1 14.275921 14.288787  0.000001
2101   0  1 14.275897 14.288763  2.855047
2102   0  1 14.275829 14.288695  5.710100
2103   0  1 14.275744 14.288610  8.565189
2104   0  1 14.275692 14.288558 11.420378
2105   0  1 14.275750 14.288616 14.275754
2106   0  1 14.275957 14.288823 17.131328
2107   0  1 14.276239 14.289105 19.986948
2108   0  1 14.276493 14.289359 22.842465
2109   0  1 14.276657 14.289523 25.697838
2110   0  1 14.276712 14.289578 28.553121
2111   0  1 14.276657 14.289523 31.408403
2112   0  1 14.276493 14.289359 34.263776
2113   0  1 14.276239 14.289105 37.119293
2114   0  1 14.275957 14.288823 39.974914
2115   0  1 14.275750 14.288616 42.830487
2116   0  1 14.275692 14.288558 45.685863
2117   0  1 14.275744 14.288610 48.541052
2118   0  1 14.275829 14.288695 51.396141
2119   0  1 14.275897 14.288763 54.251194
2120   0  1 14.275998 17.144211  0.000001
2121   0  1 14.275966 17.144184  2.855031
2122   0  1 14.275875 17.144105  5.710057
2123   0  1 14.275743 17.143987  8.565095
2124   0  1 14.275616 17.143865 11.420201
2125   0  1 14.275584 17.143819 14.275488
2126   0  1 14.275757 17.143959 17.131052
2127   0  1 14.276096 17.144275 19.986773
2128   0  1 14.276436 17.144615 22.842402
2129   0  1 14.276658 17.144851 25.697830
2130   0  1 14.276732 17.144933 28.553121
2131   0  1 14.276658 17.144851 31.408411
2132   0  1 14.276436 17.144615 34.263839
2133   0  1 14.276096 17.144275 37.119468
2134   0  1 14.275757 17.143959 39.975189
2135   0  1 14.275584 17.143819 42.830754
2136   0  1 14.275616 17.143865 45.686040
2137   0  1 14.275743 17.143987 48.541147
2138   0  1 14.275875 17.144105 51.396184
2139   0  1 14.275966 17.144184 54.251210
2140   0  1 14.276056 19.999667  0.000001
2141   0  1 14.276018 19.999640  2.855021
2142   0  1 14.275906 19.999561  5.710026
2143   0  1 14.275728 19.999430  8.565016
2144   0  1 14.275524 19.999264 11.420036
2145   0  1 14.275388 19.999124 14.275206
2146   0  1 14.275502 19.999156 17.130710
2147   0  1 14.275915 19.999469 19.986528
2148   0  1 14.276395 19.999918 22.842313
2149   0  1 14.276717 20.000264 25.697823
2150   0  1 14.276823 20.000389 28.553121
2151   0  1 14.276717 20.000264 31.408418
2152   0  1 14.276395 19.999918 34.263928
2153   0  1 14.275915 19.999469 37.119714
2154   0  1 14.275502 19.999156 39.975532
2155   0  1 14.275388 19.999124 42.831035
2156   0  1 14.275524 19.999264 45.686205
2157   0  1 14.275728 19.999430 48.541225
2158   0  1 14.275906 19.999561 51.396215
2159   0  1 14.276018 19.999640 54.251220
2160   0  1 14.276082 22.855128  0.000001
2161   0  1 14.276039 22.855106  2.855014
2162   0  1 14.275907 22.855037  5.710002
2163   0  1 14.275691 22.854917  8.564951
2164   0  1 14.275416 22.854750 11.419893
2165   0  1 14.275188 22.854575 14.274949
2166   0  1 14.275253 22.854532 17.130367
2167   0  1 14.275750 22.854793 19.986216
2168   0  1 14.276441 22.855346 22.842171
2169   0  1 14.276936 22.855857 25.697804
2170   0  1 14.277100 22.856054 28.553121
2171   0  1 14.276936 22.855857 31.408438
2172   0  1 14.276441 22.855346 34.264070
2173   0  1 14.275750 22.854793 37.120026
2174   0  1 14.275253 22.854532 39.975874
2175   0  1 14.275188 22.854575 42.831292
2176   0  1 14.275416 22.854750 45.686349
2177   0  1 14.275691 22.854917 48.541290
2178   0  1 14.275907 22.855037 51.396239
2179   0  1 14.276039 22.855106 54.251227
2180   0  1 14.276076 25.710592  0.000001
2181   0  1 14.276027 25.710577  2.855008
2182   0  1 14.275880 25.710529  5.709980
2183   0  1 14.275629 25.710442  8.564894
2184   0  1 14.275293 25.710314 11.419767
2185   0  1 14.274983 25.710169 14.274723
2186   0  1 14.275009 25.710119 17.130055
2187   0  1 14.275585 25.710323 19.985877
2188   0  1 14.276455 25.710830 22.841873
2189   0  1 14.277168 25.711469 25.697674
2190   0  1 14.277417 25.711751 28.553121
2191   0  1 14.277168 25.711469 31.408567
2192   0  1 14.276455 25.710830 34.264368
2193   0  1 14.275585 25.710323 37.120364
2194   0  1 14.275009 25.710119 39.976186
2195   0  1 14.274983 25.710169 42.831518
2196   0  1 14.275293 25.710314 45.686474
2197   0  1 14.275629 25.710442 48.541347
2198   0  1 14.275880 25.710529 51.396262
2199   0  1 14.276027 25.710577 54.251234
2200   0  1 14.276041 28.566062  0.000001
2201   0  1 14.275988 28.566057  2.854998
2202   0  1 14.275825 28.566039  5.709954
2203   0  1 14.275542 28.566005  8.564835
2204   0  1 14.275150 28.565952 11.419648
2205   0  1 14.274761 28.565896 14.274514
2206   0  1 14.274733 28.565907 17.129759
2207   0  1 14.275334 28.566084 19.985525
2208   0  1 14.276289 28.566449 22.841476
2209   0  1 14.277085 28.566894 25.697318
2210   0  1 14.277406 28.567160 28.553121
2211   0  1 14.277085 28.566894 31.408924
2212   0  1 14.276289 28.566449 34.264765
2213   0  1 14.275334 28.566084 37.120716
2214   0  1 14.274733 28.565907 39.976482
2215   0  1 14.274761 28.565896 42.831727
2216   0  1 14.275150 28.565952 45.686593
2217   0  1 14.275542 28.566005 48.541406
2218   0  1 14.275825 28.566039 51.396288
2219   0  1 14.275988 28.566057 54.251243
2220   0  1 14.275981 31.421544  0.000001
2221   0  1 14.275924 31.421551  2.854983
2222   0  1 14.275746 31.421572  5.709919
2223   0  1 14.275433 31.421609  8.564768
2224   0  1 14.274988 31.421665 11.419527
2225   0  1 14.274519 31.421750 14.274313
2226   0  1 14.274404 31.421885 17.129471
2227   0  1 14.274936 31.422081 19.985171
2228   0  1 14.275840 31.422275 22.841108
2229   0  1 14.276583 31.422329 25.697052
2230   0  1 14.276845 31.422251 28.553121
2231   0  1 14.276583 31.422329 31.409190
2232   0  1 14.275840 31.422275 34.265134
2233   0  1 14.274936 31.422081 37.121070
2234   0  1 14.274404 31.421885 39.976770
2235   0  1 14.274519 31.421750 42.831928
2236   0  1 14.274988 31.421665 45.686714
2237   0  1 14.275433 31.421609 48.541473
2238   0  1 14.275746 31.421572 51.396322
2239   0  1 14.275924 31.421551 54.251258
2240   0  1 14.275901 34.277043  0.000001
2241   0  1 14.275840 34.277064  2.854963
2242   0  1 14.275650 34.277131  5.709875
2243   0  1 14.275312 34.277253  8.564693
2244   0  1 14.274823 34.277442 11.419409
2245   0  1 14.274283 34.277706 14.274137
2246   0  1 14.274051 34.278007 17.129232
2247   0  1 14.274419 34.278239 19.984906
2248   0  1 14.275143 34.278220 22.840952
2249   0  1 14.275732 34.277884 25.697115
2250   0  1 14.275929 34.277711 28.553121
2251   0  1 14.275732 34.277884 31.409126
2252   0  1 14.275143 34.278220 34.265290
2253   0  1 14.274419 34.278239 37.121335
2254   0  1 14.274051 34.278007 39.977010
2255   0  1 14.274283 34.277706 42.832104
2256   0  1 14.274823 34.277442 45.686833
2257   0  1 14.275312 34.277253 48.541549
2258   0  1 14.275650 34.277131 51.396366
2259   0  1 14.275840 34.277064 54.251278
2260   0  1 14.275807 37.132560  0.000001
2261   0  1 14.275744 37.132596  2.854939
2262   0  1 14.275547 37.132709  5.709827
2263   0  1 14.275199 37.132917  8.564622
2264   0  1 14.274693 37.133237 11.419321
2265   0  1 14.274117 37.133665 14.274049
2266   0  1 14.273793 37.134093 17.129163
2267   0  1 14.273986 37.134277 19.984924
2268   0  1 14.274502 37.134002 22.841144
2269   0  1 14.274872 37.133682 25.697225
2270   0  1 14.274994 37.133554 28.553121
2271   0  1 14.274872 37.133682 31.409017
2272   0  1 14.274502 37.134002 34.265097
2273   0  1 14.273986 37.134277 37.121317
2274   0  1 14.273793 37.134093 39.977078
2275   0  1 14.274117 37.133665 42.832193
2276   0  1 14.274693 37.133237 45.686920
2277   0  1 14.275199 37.132917 48.541620
2278   0  1 14.275547 37.132709 51.396414
2279   0  1 14.275744 37.132596 54.251302
2280   0  1 14.275705 39.988083  0.000001
2281   0  1 14.275644 39.988132  2.854918
2282   0  1 14.275454 39.988283  5.709789
2283   0  1 14.275124 39.988551  8.564584
2284   0  1 14.274655 39.988947 11.419322
2285   0  1 14.274134 39.989429 14.274151
2286   0  1 14.273840 39.989803 17.129425
2287   0  1 14.273984 39.989768 19.985338
2288   0  1 14.274268 39.989533 22.841396
2289   0  1 14.274472 39.989331 25.697319
2290   0  1 14.274541 39.989257 28.553121
2291   0  1 14.274472 39.989331 31.408922
2292   0  1 14.274268 39.989533 34.264845
2293   0  1 14.273984 39.989768 37.120904
2294   0  1 14.273840 39.989803 39.976817
2295   0  1 14.274134 39.989429 42.832090
2296   0  1 14.274655 39.988947 45.686919
2297   0  1 14.275124 39.988551 48.541658
2298   0  1 14.275454 39.988283 51.396453
2299   0  1 14.275644 39.988132 54.251324
2300   0  1 14.275618 42.843578  0.000001
2301   0  1 14.275563 42.843632  2.854908
2302   0  1 14.275397 42.843798  5.709783
2303   0  1 14.275121 42.844074  8.564619
2304   0  1 14.274760 42.844436 11.419471
2305   0  1 14.274413 42.844782 14.274512
2306   0  1 14.274295 42.844900 17.130004
2307   0  1 14.274405 42.844790 19.985820
2308   0  1 14.274579 42.844616 22.841672
2309   0  1 14.274707 42.844488 25.697433
2310   0  1 14.274752 42.844444 28.553121
2311   0  1 14.274707 42.844488 31.408808
2312   0  1 14.274579 42.844616 34.264569
2313   0  1 14.274405 42.844790 37.120421
2314   0  1 14.274295 42.844900 39.976238
2315   0  1 14.274413 42.844782 42.831729
2316   0  1 14.274760 42.844436 45.686770
2317   0  1 14.275121 42.844074 48.541622
2318   0  1 14.275397 42.843798 51.396458
2319   0  1 14.275563 42.843632 54.251333
2320   0  1 14.275608 45.698960  0.000001
2321   0  1 14.275563 45.699014  2.854926
2322   0  1 14.275430 45.699168  5.709838
2323   0  1 14.275227 45.699394  8.564758
2324   0  1 14.275008 45.699623 11.419772
2325   0  1 14.274872 45.699742 14.275031
2326   0  1 14.274889 45.699700 17.130576
2327   0  1 14.275011 45.699562 19.986260
2328   0  1 14.275153 45.699421 22.841936
2329   0  1 14.275254 45.699325 25.697551
2330   0  1 14.275290 45.699293 28.553121
2331   0  1 14.275254 45.699325 31.408690
2332   0  1 14.275153 45.699421 34.264305
2333   0  1 14.275011 45.699562 37.119982
2334   0  1 14.274889 45.699700 39.975665
2335   0  1 14.274872 45.699742 42.831210
2336   0  1 14.275008 45.699623 45.686469
2337   0  1 14.275227 45.699394 48.541483
2338   0  1 14.275430 45.699168 51.396403
2339   0  1 14.275563 45.699014 54.251315
2340   0  1 14.275726 48.554178  0.000001
2341   0  1 14.275687 48.554226  2.854981
2342   0  1 14.275578 48.554351  5.709964
2343   0  1 14.275432 48.554501  8.564989
2344   0  1 14.275321 48.554593 11.420147
2345   0  1 14.275313 48.554583 14.275506
2346   0  1 14.275408 48.554486 17.131028
2347   0  1 14.275544 48.554357 19.986600
2348   0  1 14.275673 48.554244 22.842147
2349   0  1 14.275762 48.554171 25.697649
2350   0  1 14.275793 48.554146 28.553121
2351   0  1 14.275762 48.554171 31.408592
2352   0  1 14.275673 48.554244 34.264094
2353   0  1 14.275544 48.554357 37.119642
2354   0  1 14.275408 48.554486 39.975214
2355   0  1 14.275313 48.554583 42.830735
2356   0  1 14.275321 48.554593 45.686094
2357   0  1 14.275432 48.554501 48.541252
2358   0  1 14.275578 48.554351 51.396277
2359   0  1 14.275687 48.554226 54.251261
2360   0  1 14.275918 51.409283  0.000001
2361   0  1 14.275882 51.409319  2.855063
2362   0  1 14.275784 51.409404  5.710136
2363   0  1 14.275662 51.409482  8.565255
2364   0  1 14.275603 51.409505 11.420485
2365   0  1 14.275659 51.409458 14.275868
2366   0  1 14.275792 51.409367 17.131350
2367   0  1 14.275936 51.409270 19.986842
2368   0  1 14.276058 51.409190 22.842301
2369   0  1 14.276137 51.409139 25.697722
2370   0  1 14.276165 51.409122 28.553121
2371   0  1 14.276137 51.409139 31.408519
2372   0  1 14.276058 51.409190 34.263940
2373   0  1 14.275936 51.409270 37.119400
2374   0  1 14.275792 51.409367 39.974891
2375   0  1 14.275659 51.409458 42.830373
2376   0  1 14.275603 51.409504 45.685756
2377   0  1 14.275662 51.409482 48.540986
2378   0  1 14.275784 51.409404 51.396105
2379   0  1 14.275882 51.409319 54.251179
2380   0  1 14.276091 54.264344  0.000001
2381   0  1 14.276055 54.264364  2.855147
2382   0  1 14.275955 54.264407  5.710299
2383   0  1 14.275845 54.264441  8.565475
2384   0  1 14.275812 54.264443 11.420733
2385   0  1 14.275898 54.264409 14.276114
2386   0  1 14.276051 54.264356 17.131564
2387   0  1 14.276199 54.264302 19.987004
2388   0  1 14.276317 54.264257 22.842407
2389   0  1 14.276391 54.264229 25.697774
2390   0  1 14.276416 54.264219 28.553121
2391   0  1 14.276391 54.264229 31.408467
2392   0  1 14.276317 54.264257 34.263834
2393   0  1 14.276199 54.264302 37.119237
2394   0  1 14.276051 54.264356 39.974678
2395   0  1 14.275898 54.264409 42.830128
2396   0  1 14.275812 54.264443 45.685508
2397   0  1 14.275845 54.264441 48.540766
2398   0  1 14.275955 54.264407 51.395942
2399   0  1 14.276055 54.264364 54.251095
2400   0  1 17.131534  0.013125  0.000001
2401   0  1 17.131518  0.013128  2.855206
2402   0  1 17.131478  0.013137  5.710429
2403   0  1 17.131433  0.013146  8.565679
2404   0  1 17.131419  0.013152 11.420968
2405   0  1 17.131468  0.013152 14.276308
2406   0  1 17.131579  0.013147 17.131691
2407   0  1 17.131714  0.013138 19.987083
2408   0  1 17.131834  0.013129 22.842454
2409   0  1 17.131914  0.013122 25.697796
2410   0  1 17.131942  0.013119 28.553121
2411   0  1 17.131914  0.013122 31.408445
2412   0  1 17.131834  0.013129 34.263788
2413   0  1 17.131714  0.013138 37.119158
2414   0  1 17.131579  0.013147 39.974550
2415   0  1 17.131468  0.013152 42.829933
2416   0  1 17.131419  0.013152 45.685273
2417   0  1 17.131433  0.013146 48.540562
2418   0  1 17.131478  0.013137 51.395813
2419   0  1 17.131518  0.013128 54.251035
2420   0  1 17.131532  2.868179  0.000001
2421   0  1 17.131518  2.868173  2.855208
2422   0  1 17.131480  2.868164  5.710434
2423   0  1 17.131441  2.868166  8.565692
2424   0  1 17.131437  2.868189 11.420993
2425   0  1 17.131500  2.868233 14.276348
2426   0  1 17.131628  2.868288 17.131742
2427   0  1 17.131780  2.868338 19.987136
2428   0  1 17.131913  2.868375 22.842497
2429   0  1 17.132001  2.868397 25.697820
2430   0  1 17.132032  2.868403 28.553121
2431   0  1 17.132001  2.868397 31.408421
2432   0  1 17.131913  2.868375 34.263744
2433   0  1 17.131780  2.868338 37.119106
2434   0  1 17.131628  2.868288 39.974499
2435   0  1 17.131500  2.868233 42.829893
2436   0  1 17.131437  2.868189 45.685248
2437   0  1 17.131441  2.868166 48.540550
2438   0  1 17.131480  2.868164 51.395807
2439   0  1 17.131518  2.868173 54.251033
2440   0  1 17.131485  5.723256  0.000001
2441   0  1 17.131470  5.723242  2.855172
2442   0  1 17.131429  5.723212  5.710366
2443   0  1 17.131388  5.723199  8.565604
2444   0  1 17.131386  5.723231 11.420908
2445   0  1 17.131460  5.723315 14.276288
2446   0  1 17.131608  5.723431 17.131717
2447   0  1 17.131786  5.723546 19.987141
2448   0  1 17.131944  5.723635 22.842515
2449   0  1 17.132048  5.723688 25.697835
2450   0  1 17.132085  5.723706 28.553121
2451   0  1 17.132048  5.723688 31.408406
2452   0  1 17.131944  5.723635 34.263726
2453   0  1 17.131786  5.723546 37.119100
2454   0  1 17.131608  5.723431 39.974524
2455   0  1 17.131460  5.723315 42.829953
2456   0  1 17.131386  5.723231 45.685333
2457   0  1 17.131388  5.723199 48.540638
2458   0  1 17.131429  5.723212 51.395876
2459   0  1 17.131470  5.723242 54.251069
2460   0  1 17.131415  8.578380  0.000001
2461   0  1 17.131396  8.578357  2.855119
2462   0  1 17.131347  8.578304  5.710256
2463   0  1 17.131292  8.578257  8.565443
2464   0  1 17.131276  8.578269 11.420724
2465   0  1 17.131348  8.578370 14.276124
2466   0  1 17.131515  8.578543 17.131609
2467   0  1 17.131729  8.578731 19.987095
2468   0  1 17.131925  8.578882 22.842510
2469   0  1 17.132057  8.578974 25.697841
2470   0  1 17.132103  8.579004 28.553121
2471   0  1 17.132057  8.578974 31.408400
2472   0  1 17.131925  8.578882 34.263731
2473   0  1 17.131729  8.578731 37.119146
2474   0  1 17.131515  8.578543 39.974632
2475   0  1 17.131348  8.578370 42.830118
2476   0  1 17.131276  8.578269 45.685517
2477   0  1 17.131292  8.578257 48.540798
2478   0  1 17.131347  8.578304 51.395986
2479   0  1 17.131396  8.578357 54.251123
2480   0  1 17.131357 11.433575  0.000001
2481   0  1 17.131334 11.433546  2.855067
2482   0  1 17.131271 11.433470  5.710143
2483   0  1 17.131189 11.433378  8.565257
2484   0  1 17.131133 11.433331 11.420470
2485   0  1 17.131170 11.433399 14.275851
2486   0  1 17.131341 11.433602 17.131396
2487   0  1 17.131602 11.433868 19.986981
2488   0  1 17.131854 11.434099 22.842475
2489   0  1 17.132026 11.434243 25.697840
2490   0  1 17.132085 11.434290 28.553121
2491   0  1 17.132026 11.434243 31.408401
2492   0  1 17.131854 11.434099 34.263766
2493   0  1 17.131602 11.433868 37.119260
2494   0  1 17.131341 11.433602 39.974846
2495   0  1 17.131170 11.433399 42.830391
2496   0  1 17.131133 11.433331 45.685772
2497   0  1 17.131189 11.433378 48.540984
2498   0  1 17.131271 11.433470 51.396098
2499   0  1 17.131334 11.433546 54.251174
2500   0  1 17.131345 14.288864  0.000001
2501   0  1 17.131318 14.288832  2.855031
2502   0  1 17.131239 14.288741  5.710057
2503   0  1 17.131121 14.288609  8.565095
2504   0  1 17.130999 14.288482 11.420201
2505   0  1 17.130953 14.288450 14.275488
2506   0  1 17.131093 14.288623 17.131052
2507   0  1 17.131409 14.288962 19.986773
2508   0  1 17.131749 14.289302 22.842402
2509   0  1 17.131986 14.289524 25.697830
2510   0  1 17.132067 14.289598 28.553121
2511   0  1 17.131986 14.289524 31.408411
2512   0  1 17.131749 14.289302 34.263839
2513   0  1 17.131409 14.288962 37.119468
2514   0  1 17.131093 14.288623 39.975189
2515   0  1 17.130953 14.288450 42.830754
2516   0  1 17.130999 14.288482 45.686040
2517   0  1 17.131121 14.288609 48.541147
2518   0  1 17.131239 14.288741 51.396184
2519   0  1 17.131318 14.288832 54.251210
2520   0  1 17.131380 17.144246  0.000001
2521   0  1 17.131348 17.144214  2.855015
2522   0  1 17.131253 17.144119  5.710010
2523   0  1 17.131097 17.143963  8.564982
2524   0  1 17.130904 17.143770 11.419971
2525   0  1 17.130751 17.143617 14.275103
2526   0  1 17.130802 17.143668 17.130581
2527   0  1 17.131181 17.144047 19.986438
2528   0  1 17.131676 17.144542 22.842279
2529   0  1 17.132029 17.144895 25.697817
2530   0  1 17.132150 17.145016 28.553121
2531   0  1 17.132029 17.144895 31.408424
2532   0  1 17.131676 17.144542 34.263962
2533   0  1 17.131181 17.144047 37.119804
2534   0  1 17.130802 17.143668 39.975660
2535   0  1 17.130751 17.143617 42.831138
2536   0  1 17.130904 17.143770 45.686270
2537   0  1 17.131097 17.143963 48.541260
2538   0  1 17.131253 17.144119 51.396232
2539   0  1 17.131348 17.144214 54.251226
2540   0  1 17.131429 19.999684  0.000001
2541   0  1 17.131393 19.999656  2.855013
2542   0  1 17.131284 19.999568  5.709993
2543   0  1 17.131092 19.999411  8.564917
2544   0  1 17.130818 19.999178 11.419795
2545   0  1 17.130508 19.998890 14.274718
2546   0  1 17.130340 19.998688 17.129945
2547   0  1 17.130711 19.998965 19.985872
2548   0  1 17.131426 19.999621 22.842040
2549   0  1 17.131965 20.000165 25.697781
2550   0  1 17.132147 20.000359 28.553121
2551   0  1 17.131965 20.000165 31.408460
2552   0  1 17.131426 19.999621 34.264202
2553   0  1 17.130711 19.998965 37.120369
2554   0  1 17.130340 19.998688 39.976296
2555   0  1 17.130508 19.998890 42.831524
2556   0  1 17.130818 19.999178 45.686446
2557   0  1 17.131092 19.999411 48.541324
2558   0  1 17.131284 19.999568 51.396249
2559   0  1 17.131393 19.999656 54.251229
2560   0  1 17.131462 22.855145  0.000001
2561   0  1 17.131423 22.855123  2.855017
2562   0  1 17.131300 22.855053  5.709992
2563   0  1 17.131077 22.854919  8.564887
2564   0  1 17.130729 22.854697 11.419678
2565   0  1 17.130262 22.854363 14.274407
2566   0  1 17.129835 22.853981 17.129320
2567   0  1 17.130085 22.854003 19.985102
2568   0  1 17.131115 22.854791 22.841645
2569   0  1 17.132023 22.855676 25.697740
2570   0  1 17.132324 22.856013 28.553121
2571   0  1 17.132023 22.855676 31.408502
2572   0  1 17.131115 22.854791 34.264596
2573   0  1 17.130085 22.854003 37.121139
2574   0  1 17.129835 22.853981 39.976921
2575   0  1 17.130262 22.854363 42.831835
2576   0  1 17.130729 22.854697 45.686564
2577   0  1 17.131077 22.854919 48.541354
2578   0  1 17.131300 22.855053 51.396249
2579   0  1 17.131423 22.855123 54.251224
2580   0  1 17.131464 25.710612  0.000001
2581   0  1 17.131422 25.710598  2.855021
2582   0  1 17.131288 25.710555  5.709993
2583   0  1 17.131036 25.710467  8.564867
2584   0  1 17.130622 25.710307 11.419592
2585   0  1 17.130020 25.710041 14.274166
2586   0  1 17.129381 25.709690 17.128814
2587   0  1 17.129568 25.709630 19.984398
2588   0  1 17.130912 25.710321 22.841001
2589   0  1 17.132445 25.711638 25.697572
2590   0  1 17.132999 25.712249 28.553121
2591   0  1 17.132445 25.711638 31.408669
2592   0  1 17.130912 25.710321 34.265240
2593   0  1 17.129568 25.709630 37.121844
2594   0  1 17.129381 25.709690 39.977428
2595   0  1 17.130020 25.710041 42.832075
2596   0  1 17.130622 25.710307 45.686649
2597   0  1 17.131036 25.710467 48.541374
2598   0  1 17.131288 25.710555 51.396248
2599   0  1 17.131422 25.710598 54.251221
2600   0  1 17.131435 28.566084  0.000001
2601   0  1 17.131390 28.566082  2.855019
2602   0  1 17.131242 28.566073  5.709984
2603   0  1 17.130960 28.566050  8.564836
2604   0  1 17.130484 28.565999 11.419504
2605   0  1 17.129758 28.565897 14.273948
2606   0  1 17.128927 28.565761 17.128373
2607   0  1 17.129036 28.565839 19.983767
2608   0  1 17.130561 28.566401 22.840235
2609   0  1 17.132376 28.567339 25.696735
2610   0  1 17.133286 28.568108 28.553121
2611   0  1 17.132376 28.567339 31.409506
2612   0  1 17.130561 28.566401 34.266006
2613   0  1 17.129036 28.565839 37.122474
2614   0  1 17.128927 28.565761 39.977868
2615   0  1 17.129758 28.565897 42.832293
2616   0  1 17.130484 28.565999 45.686738
2617   0  1 17.130960 28.566050 48.541406
2618   0  1 17.131242 28.566073 51.396257
2619   0  1 17.131390 28.566082 54.251223
2620   0  1 17.131378 31.421566  0.000001
2621   0  1 17.131328 31.421577  2.855007
2622   0  1 17.131165 31.421611  5.709955
2623   0  1 17.130851 31.421673  8.564777
2624   0  1 17.130313 31.421773 11.419387
2625   0  1 17.129468 31.421924 14.273716
2626   0  1 17.128439 31.422159 17.127949
2627   0  1 17.128344 31.422567 19.983143
2628   0  1 17.129737 31.423088 22.839497
2629   0  1 17.131417 31.423230 25.696110
2630   0  1 17.132058 31.422774 28.553121
2631   0  1 17.131417 31.423230 31.410132
2632   0  1 17.129737 31.423088 34.266745
2633   0  1 17.128344 31.422567 37.123098
2634   0  1 17.128439 31.422159 39.978293
2635   0  1 17.129468 31.421924 42.832525
2636   0  1 17.130313 31.421773 45.686855
2637   0  1 17.130851 31.421673 48.541464
2638   0  1 17.131165 31.421611 51.396286
2639   0  1 17.131328 31.421577 54.251234
2640   0  1 17.131300 34.277061  0.000001
2641   0  1 17.131246 34.277087  2.854984
2642   0  1 17.131069 34.277171  5.709906
2643   0  1 17.130727 34.277334  8.564689
2644   0  1 17.130136 34.277616 11.419242
2645   0  1 17.129192 34.278082 14.273485
2646   0  1 17.127981 34.278797 17.127595
2647   0  1 17.127570 34.279634 19.982685
2648   0  1 17.128536 34.279992 22.839231
2649   0  1 17.129845 34.279024 25.696604
2650   0  1 17.130236 34.278578 28.553121
2651   0  1 17.129845 34.279024 31.409638
2652   0  1 17.128536 34.279992 34.267010
2653   0  1 17.127570 34.279634 37.123556
2654   0  1 17.127981 34.278797 39.978647
2655   0  1 17.129192 34.278082 42.832757
2656   0  1 17.130136 34.277616 45.687000
2657   0  1 17.130727 34.277334 48.541552
2658   0  1 17.131069 34.277171 51.396336
2659   0  1 17.131246 34.277087 54.251257
2660   0  1 17.131214 37.132564  0.000001
2661   0  1 17.131158 37.132606  2.854955
2662   0  1 17.130975 37.132741  5.709843
2663   0  1 17.130622 37.133003  8.564592
2664   0  1 17.130016 37.133460 11.419115
2665   0  1 17.129056 37.134209 14.273360
2666   0  1 17.127811 37.135291 17.127562
2667   0  1 17.127255 37.136219 19.982922
2668   0  1 17.128061 37.135705 22.840127
2669   0  1 17.128685 37.135108 25.696890
2670   0  1 17.128878 37.134890 28.553121
2671   0  1 17.128685 37.135108 31.409352
2672   0  1 17.128061 37.135705 34.266115
2673   0  1 17.127255 37.136219 37.123319
2674   0  1 17.127811 37.135291 39.978679
2675   0  1 17.129056 37.134209 42.832881
2676   0  1 17.130016 37.133460 45.687126
2677   0  1 17.130622 37.133003 48.541649
2678   0  1 17.130975 37.132741 51.396398
2679   0  1 17.131158 37.132606 54.251287
2680   0  1 17.131141 39.988054  0.000001
2681   0  1 17.131086 39.988109  2.854927
2682   0  1 17.130911 39.988284  5.709792
2683   0  1 17.130581 39.988614  8.564535
2684   0  1 17.130040 39.989156 11.419108
2685   0  1 17.129237 39.989959 14.273549
2686   0  1 17.128313 39.990882 17.128222
2687   0  1 17.128189 39.991006 19.984259
2688   0  1 17.128561 39.990634 22.840813
2689   0  1 17.128871 39.990325 25.697096
2690   0  1 17.128976 39.990220 28.553121
2691   0  1 17.128871 39.990325 31.409145
2692   0  1 17.128561 39.990634 34.265428
2693   0  1 17.128189 39.991006 37.121983
2694   0  1 17.128313 39.990882 39.978019
2695   0  1 17.129237 39.989959 42.832692
2696   0  1 17.130040 39.989156 45.687133
2697   0  1 17.130581 39.988614 48.541706
2698   0  1 17.130911 39.988284 51.396449
2699   0  1 17.131086 39.988109 54.251314
2700   0  1 17.131112 42.843490  0.000001
2701   0  1 17.131064 42.843551  2.854918
2702   0  1 17.130913 42.843741  5.709789
2703   0  1 17.130644 42.844072  8.564584
2704   0  1 17.130248 42.844540 11.419322
2705   0  1 17.129766 42.845061 14.274151
2706   0  1 17.129392 42.845355 17.129425
2707   0  1 17.129427 42.845211 19.985338
2708   0  1 17.129663 42.844927 22.841396
2709   0  1 17.129865 42.844723 25.697319
2710   0  1 17.129938 42.844654 28.553121
2711   0  1 17.129865 42.844723 31.408922
2712   0  1 17.129663 42.844927 34.264845
2713   0  1 17.129427 42.845211 37.120904
2714   0  1 17.129392 42.845355 39.976817
2715   0  1 17.129766 42.845061 42.832090
2716   0  1 17.130248 42.844540 45.686919
2717   0  1 17.130644 42.844072 48.541658
2718   0  1 17.130913 42.843741 51.396453
2719   0  1 17.131064 42.843551 54.251324
2720   0  1 17.131155 45.698829  0.000001
2721   0  1 17.131115 45.698889  2.854941
2722   0  1 17.130996 45.699061  5.709860
2723   0  1 17.130804 45.699324  8.564766
2724   0  1 17.130566 45.699614 11.419725
2725   0  1 17.130352 45.699803 14.274881
2726   0  1 17.130264 45.699784 17.130343
2727   0  1 17.130362 45.699588 19.986056
2728   0  1 17.130540 45.699368 22.841809
2729   0  1 17.130686 45.699220 25.697495
2730   0  1 17.130741 45.699169 28.553121
2731   0  1 17.130686 45.699220 31.408747
2732   0  1 17.130540 45.699368 34.264432
2733   0  1 17.130362 45.699588 37.120185
2734   0  1 17.130264 45.699784 39.975898
2735   0  1 17.130352 45.699803 42.831361
2736   0  1 17.130566 45.699614 45.686516
2737   0  1 17.130804 45.699324 48.541475
2738   0  1 17.130996 45.699061 51.396381
2739   0  1 17.131115 45.698889 54.251300
2740   0  1 17.131258 48.554064  0.000001
2741   0  1 17.131228 48.554112  2.855001
2742   0  1 17.131140 48.554241  5.710005
2743   0  1 17.131014 48.554404  8.565042
2744   0  1 17.130889 48.554526 11.420178
2745   0  1 17.130821 48.554538 14.275477
2746   0  1 17.130851 48.554430 17.130945
2747   0  1 17.130969 48.554259 19.986512
2748   0  1 17.131113 48.554099 22.842084
2749   0  1 17.131224 48.553994 25.697618
2750   0  1 17.131265 48.553958 28.553121
2751   0  1 17.131224 48.553994 31.408623
2752   0  1 17.131113 48.554099 34.264157
2753   0  1 17.130969 48.554259 37.119729
2754   0  1 17.130851 48.554430 39.975296
2755   0  1 17.130821 48.554538 42.830764
2756   0  1 17.130889 48.554526 45.686063
2757   0  1 17.131014 48.554404 48.541199
2758   0  1 17.131140 48.554241 51.396236
2759   0  1 17.131228 48.554112 54.251241
2760   0  1 17.131381 51.409215  0.000001
2761   0  1 17.131358 51.409247  2.855082
2762   0  1 17.131295 51.409323  5.710183
2763   0  1 17.131212 51.409400  8.565330
2764   0  1 17.131149 51.409429 11.420560
2765   0  1 17.131148 51.409386 14.275896
2766   0  1 17.131224 51.409285 17.131326
2767   0  1 17.131347 51.409164 19.986798
2768   0  1 17.131472 51.409059 22.842264
2769   0  1 17.131562 51.408991 25.697702
2770   0  1 17.131594 51.408968 28.553121
2771   0  1 17.131562 51.408991 31.408539
2772   0  1 17.131472 51.409059 34.263978
2773   0  1 17.131347 51.409164 37.119443
2774   0  1 17.131224 51.409285 39.974915
2775   0  1 17.131148 51.409386 42.830345
2776   0  1 17.131149 51.409429 45.685682
2777   0  1 17.131212 51.409400 48.540911
2778   0  1 17.131295 51.409323 51.396059
2779   0  1 17.131358 51.409247 54.251159
2780   0  1 17.131481 54.264307  0.000001
2781   0  1 17.131463 54.264322  2.855160
2782   0  1 17.131414 54.264357  5.710339
2783   0  1 17.131356 54.264385  8.565555
2784   0  1 17.131325 54.264384 11.420825
2785   0  1 17.131356 54.264349 14.276163
2786   0  1 17.131452 54.264290 17.131560
2787   0  1 17.131578 54.264225 19.986977
2788   0  1 17.131695 54.264169 22.842380
2789   0  1 17.131776 54.264133 25.697759
2790   0  1 17.131804 54.264121 28.553121
2791   0  1 17.131776 54.264133 31.408483
2792   0  1 17.131695 54.264169 34.263861
2793   0  1 17.131578 54.264225 37.119264
2794   0  1 17.131452 54.264290 39.974681
2795   0  1 17.131356 54.264349 42.830078
2796   0  1 17.131325 54.264384 45.685416
2797   0  1 17.131356 54.264385 48.540686
2798   0  1 17.131414 54.264357 51.395902
2799   0  1 17.131463 54.264322 54.251082
2800   0  1 19.986918  0.013085  0.000001
2801   0  1 19.986912  0.013087  2.855206
2802   0  1 19.986895  0.013093  5.710438
2803   0  1 19.986878  0.013099  8.565708
2804   0  1 19.986877  0.013102 11.421017
2805   0  1 19.986909  0.013100 14.276356
2806   0  1 19.986982  0.013093 17.131716
2807   0  1 19.987083  0.013084 19.987083
2808   0  1 19.987184  0.013075 22.842443
2809   0  1 19.987258  0.013067 25.697787
2810   0  1 19.987285  0.013065 28.553121
2811   0  1 19.987258  0.013067 31.408454
2812   0  1 19.987184  0.013075 34.263799
2813   0  1 19.987083  0.013084 37.119158
2814   0  1 19.986982  0.013093 39.974525
2815   0  1 19.986909  0.013100 42.829885
2816   0  1 19.986877  0.013102 45.685224
2817   0  1 19.986878  0.013099 48.540533
2818   0  1 19.986895  0.013093 51.395803
2819   0  1 19.986912  0.013087 54.251035
2820   0  1 19.986914  2.868145  0.000001
2821   0  1 19.986906  2.868139  2.855204
2822   0  1 19.986887  2.868130  5.710433
2823   0  1 19.986870  2.868131  8.565706
2824   0  1 19.986874  2.868155 11.421023
2825   0  1 19.986918  2.868203 14.276377
2826   0  1 19.987011  2.868263 17.131752
2827   0  1 19.987136  2.868321 19.987128
2828   0  1 19.987259  2.868365 22.842483
2829   0  1 19.987347  2.868392 25.697811
2830   0  1 19.987379  2.868401 28.553121
2831   0  1 19.987347  2.868392 31.408430
2832   0  1 19.987259  2.868365 34.263758
2833   0  1 19.987136  2.868321 37.119114
2834   0  1 19.987011  2.868263 39.974489
2835   0  1 19.986918  2.868203 42.829864
2836   0  1 19.986874  2.868155 45.685218
2837   0  1 19.986870  2.868131 48.540535
2838   0  1 19.986887  2.868130 51.395808
2839   0  1 19.986906  2.868139 54.251037
2840   0  1 19.986885  5.723239  0.000001
2841   0  1 19.986873  5.723224  2.855164
2842   0  1 19.986844  5.723191  5.710354
2843   0  1 19.986814  5.723173  8.565596
2844   0  1 19.986811  5.723202 11.420908
2845   0  1 19.986863  5.723291 14.276285
2846   0  1 19.986979  5.723421 17.131703
2847   0  1 19.987139  5.723555 19.987120
2848   0  1 19.987300  5.723663 22.842498
2849   0  1 19.987416  5.723729 25.697826
2850   0  1 19.987457  5.723751 28.553121
2851   0  1 19.987416  5.723729 31.408415
2852   0  1 19.987300  5.723663 34.263743
2853   0  1 19.987139  5.723555 37.119121
2854   0  1 19.986979  5.723421 39.974538
2855   0  1 19.986863  5.723291 42.829956
2856   0  1 19.986811  5.723202 45.685334
2857   0  1 19.986814  5.723173 48.540645
2858   0  1 19.986844  5.723191 51.395887
2859   0  1 19.986873  5.723224 54.251077
2860   0  1 19.986845  8.578393  0.000001
2861   0  1 19.986828  8.578367  2.855107
2862   0  1 19.986782  8.578302  5.710232
2863   0  1 19.986726  8.578237  8.565408
2864   0  1 19.986695  8.578230 11.420677
2865   0  1 19.986734  8.578327 14.276066
2866   0  1 19.986869  8.578519 17.131549
2867   0  1 19.987080  8.578746 19.987050
2868   0  1 19.987301  8.578938 22.842488
2869   0  1 19.987462  8.579058 25.697834
2870   0  1 19.987521  8.579098 28.553121
2871   0  1 19.987462  8.579058 31.408407
2872   0  1 19.987301  8.578938 34.263754
2873   0  1 19.987080  8.578746 37.119191
2874   0  1 19.986869  8.578519 39.974692
2875   0  1 19.986734  8.578327 42.830175
2876   0  1 19.986695  8.578230 45.685564
2877   0  1 19.986726  8.578237 48.540833
2878   0  1 19.986782  8.578302 51.396009
2879   0  1 19.986828  8.578367 54.251134
2880   0  1 19.986811 11.433619  0.000001
2881   0  1 19.986789 11.433585  2.855054
2882   0  1 19.986724 11.433488  5.710111
2883   0  1 19.986631 11.433361  8.565193
2884   0  1 19.986543 11.433266 11.420361
2885   0  1 19.986526 11.433296 14.275700
2886   0  1 19.986651 11.433509 17.131242
2887   0  1 19.986922 11.433841 19.986880
2888   0  1 19.987234 11.434152 22.842439
2889   0  1 19.987468 11.434351 25.697836
2890   0  1 19.987553 11.434416 28.553121
2891   0  1 19.987468 11.434351 31.408405
2892   0  1 19.987234 11.434152 34.263802
2893   0  1 19.986922 11.433841 37.119361
2894   0  1 19.986651 11.433509 39.975000
2895   0  1 19.986526 11.433296 42.830541
2896   0  1 19.986543 11.433266 45.685881
2897   0  1 19.986631 11.433361 48.541048
2898   0  1 19.986724 11.433488 51.396130
2899   0  1 19.986789 11.433585 54.251187
2900   0  1 19.986801 14.288922  0.000001
2901   0  1 19.986774 14.288884  2.855021
2902   0  1 19.986695 14.288771  5.710026
2903   0  1 19.986564 14.288594  8.565016
2904   0  1 19.986398 14.288390 11.420036
2905   0  1 19.986258 14.288254 14.275206
2906   0  1 19.986290 14.288368 17.130710
2907   0  1 19.986603 14.288781 19.986528
2908   0  1 19.987052 14.289261 22.842313
2909   0  1 19.987398 14.289583 25.697823
2910   0  1 19.987523 14.289689 28.553121
2911   0  1 19.987398 14.289583 31.408418
2912   0  1 19.987052 14.289261 34.263928
2913   0  1 19.986603 14.288781 37.119714
2914   0  1 19.986290 14.288368 39.975532
2915   0  1 19.986258 14.288254 42.831035
2916   0  1 19.986398 14.288390 45.686205
2917   0  1 19.986564 14.288594 48.541225
2918   0  1 19.986695 14.288771 51.396215
2919   0  1 19.986774 14.288884 54.251220
2920   0  1 19.986818 17.144295  0.000001
2921   0  1 19.986790 17.144259  2.855013
2922   0  1 19.986702 17.144150  5.709993
2923   0  1 19.986545 17.143958  8.564917
2924   0  1 19.986312 17.143684 11.419795
2925   0  1 19.986024 17.143374 14.274718
2926   0  1 19.985822 17.143206 17.129945
2927   0  1 19.986099 17.143577 19.985872
2928   0  1 19.986755 17.144292 22.842040
2929   0  1 19.987299 17.144831 25.697781
2930   0  1 19.987493 17.145013 28.553121
2931   0  1 19.987299 17.144831 31.408460
2932   0  1 19.986755 17.144292 34.264202
2933   0  1 19.986099 17.143577 37.120369
2934   0  1 19.985822 17.143206 39.976296
2935   0  1 19.986024 17.143374 42.831524
2936   0  1 19.986312 17.143684 45.686446
2937   0  1 19.986545 17.143958 48.541324
2938   0  1 19.986702 17.144149 51.396249
2939   0  1 19.986790 17.144259 54.251229
2940   0  1 19.986852 19.999718  0.000001
2941   0  1 19.986823 19.999689  2.855022
2942   0  1 19.986732 19.999598  5.710001
2943   0  1 19.986561 19.999427  8.564897
2944   0  1 19.986284 19.999150 11.419676
2945   0  1 19.985896 19.998762 14.274370
2946   0  1 19.985527 19.998393 17.129237
2947   0  1 19.985649 19.998515 19.984939
2948   0  1 19.986629 19.999495 22.841552
2949   0  1 19.987605 20.000471 25.697724
2950   0  1 19.987952 20.000818 28.553121
2951   0  1 19.987605 20.000471 31.408518
2952   0  1 19.986629 19.999495 34.264689
2953   0  1 19.985649 19.998515 37.121302
2954   0  1 19.985527 19.998393 39.977004
2955   0  1 19.985896 19.998762 42.831872
2956   0  1 19.986284 19.999150 45.686565
2957   0  1 19.986561 19.999427 48.541345
2958   0  1 19.986732 19.999598 51.396240
2959   0  1 19.986823 19.999689 54.251220
2960   0  1 19.986879 22.855168  0.000001
2961   0  1 19.986850 22.855148  2.855038
2962   0  1 19.986755 22.855083  5.710031
2963   0  1 19.986572 22.854955  8.564923
2964   0  1 19.986254 22.854723 11.419649
2965   0  1 19.985730 22.854312 14.274146
2966   0  1 19.984950 22.853615 17.128459
2967   0  1 19.984135 22.852720 19.983136
2968   0  1 19.985228 22.853547 22.840257
2969   0  1 19.986953 22.855167 25.697484
2970   0  1 19.987551 22.855781 28.553121
2971   0  1 19.986953 22.855167 31.408757
2972   0  1 19.985228 22.853547 34.265984
2973   0  1 19.984135 22.852720 37.123105
2974   0  1 19.984950 22.853615 39.977782
2975   0  1 19.985730 22.854312 42.832096
2976   0  1 19.986254 22.854723 45.686592
2977   0  1 19.986572 22.854955 48.541318
2978   0  1 19.986755 22.855083 51.396211
2979   0  1 19.986850 22.855148 54.251203
2980   0  1 19.986882 25.710629  0.000001
2981   0  1 19.986851 25.710619  2.855053
2982   0  1 19.986751 25.710586  5.710059
2983   0  1 19.986551 25.710514  8.564958
2984   0  1 19.986191 25.710371 11.419661
2985   0  1 19.985546 25.710073 14.274038
2986   0  1 19.984422 25.709440 17.127954
2987   0  1 19.982786 25.708274 19.981658
2988   0  1 19.983673 25.708466 22.838376
2989   0  1 19.986790 25.711050 25.697011
2990   0  1 19.988142 25.712477 28.553121
2991   0  1 19.986790 25.711050 31.409230
2992   0  1 19.983673 25.708466 34.267866
2993   0  1 19.982786 25.708274 37.124583
2994   0  1 19.984422 25.709440 39.978287
2995   0  1 19.985546 25.710073 42.832203
2996   0  1 19.986191 25.710371 45.686580
2997   0  1 19.986551 25.710514 48.541284
2998   0  1 19.986751 25.710586 51.396183
2999   0  1 19.986851 25.710619 54.251188
3000   0  1 19.986855 28.566096  0.000001
3001   0  1 19.986821 28.566097  2.855058
3002   0  1 19.986710 28.566100  5.710068
3003   0  1 19.986487 28.566100  8.564964
3004   0  1 19.986074 28.566084 11.419643
3005   0  1 19.985307 28.566010 14.273924
3006   0  1 19.983886 28.565769 17.127539
3007   0  1 19.981670 28.565243 19.980551
3008   0  1 19.982582 28.565711 22.836723
3009   0  1 19.986717 28.567843 25.694935
3010   0  1 19.989781 28.570522 28.553121
3011   0  1 19.986717 28.567843 31.411307
3012   0  1 19.982582 28.565711 34.269518
3013   0  1 19.981670 28.565243 37.125690
3014   0  1 19.983886 28.565769 39.978702
3015   0  1 19.985307 28.566010 42.832317
3016   0  1 19.986074 28.566084 45.686598
3017   0  1 19.986487 28.566100 48.541277
3018   0  1 19.986710 28.566100 51.396174
3019   0  1 19.986821 28.566097 54.251183
3020   0  1 19.986802 31.421569  0.000001
3021   0  1 19.986764 31.421583  2.855049
3022   0  1 19.986638 31.421629  5.710045
3023   0  1 19.986384 31.421716  8.564918
3024   0  1 19.985908 31.421869 11.419548
3025   0  1 19.985003 31.422127 14.273710
3026   0  1 19.983272 31.422561 17.127032
3027   0  1 19.980432 31.423322 19.979428
3028   0  1 19.980827 31.424961 22.835030
3029   0  1 19.984736 31.426098 25.693090
3030   0  1 19.987003 31.423515 28.553121
3031   0  1 19.984736 31.426098 31.413151
3032   0  1 19.980827 31.424961 34.271212
3033   0  1 19.980432 31.423322 37.126813
3034   0  1 19.983272 31.422561 39.979209
3035   0  1 19.985003 31.422127 42.832531
3036   0  1 19.985908 31.421869 45.686694
3037   0  1 19.986384 31.421716 48.541323
3038   0  1 19.986638 31.421629 51.396196
3039   0  1 19.986764 31.421583 54.251192
3040   0  1 19.986734 34.277048  0.000001
3041   0  1 19.986692 34.277077  2.855024
3042   0  1 19.986553 34.277171  5.709989
3043   0  1 19.986271 34.277361  8.564815
3044   0  1 19.985738 34.277716 11.419368
3045   0  1 19.984716 34.278387 14.273395
3046   0  1 19.982723 34.279700 17.126473
3047   0  1 19.979288 34.282184 19.978506
3048   0  1 19.978653 34.284907 22.834318
3049   0  1 19.982441 34.281567 25.696032
3050   0  1 19.983251 34.280499 28.553121
3051   0  1 19.982441 34.281567 31.410209
3052   0  1 19.978653 34.284907 34.271923
3053   0  1 19.979288 34.282184 37.127735
3054   0  1 19.982723 34.279700 39.979768
3055   0  1 19.984716 34.278387 42.832847
3056   0  1 19.985738 34.277716 45.686874
3057   0  1 19.986271 34.277361 48.541426
3058   0  1 19.986553 34.277171 51.396252
3059   0  1 19.986692 34.277077 54.251217
3060   0  1 19.986670 37.132526  0.000001
3061   0  1 19.986626 37.132569  2.854989
3062   0  1 19.986482 37.132713  5.709911
3063   0  1 19.986192 37.133003  8.564684
3064   0  1 19.985654 37.133541 11.419172
3065   0  1 19.984647 37.134548 14.273158
3066   0  1 19.982760 37.136435 17.126380
3067   0  1 19.979694 37.139501 19.979275
3068   0  1 19.980689 37.138507 22.838275
3069   0  1 19.981898 37.137297 25.696439
3070   0  1 19.982256 37.136940 28.553121
3071   0  1 19.981898 37.137297 31.409802
3072   0  1 19.980689 37.138507 34.267966
3073   0  1 19.979694 37.139501 37.126966
3074   0  1 19.982760 37.136435 39.979861
3075   0  1 19.984647 37.134548 42.833083
3076   0  1 19.985654 37.133541 45.687069
3077   0  1 19.986192 37.133003 48.541558
3078   0  1 19.986482 37.132713 51.396330
3079   0  1 19.986626 37.132569 54.251253
3080   0  1 19.986631 39.987981  0.000001
3081   0  1 19.986590 39.988038  2.854955
3082   0  1 19.986454 39.988221  5.709843
3083   0  1 19.986192 39.988574  8.564592
3084   0  1 19.985736 39.989179 11.419115
3085   0  1 19.984987 39.990139 14.273360
3086   0  1 19.983904 39.991385 17.127562
3087   0  1 19.982977 39.991940 19.982922
3088   0  1 19.983490 39.991134 22.840127
3089   0  1 19.984088 39.990510 25.696890
3090   0  1 19.984305 39.990317 28.553121
3091   0  1 19.984088 39.990510 31.409352
3092   0  1 19.983490 39.991134 34.266115
3093   0  1 19.982977 39.991940 37.123319
3094   0  1 19.983904 39.991385 39.978679
3095   0  1 19.984987 39.990139 42.832881
3096   0  1 19.985736 39.989179 45.687126
3097   0  1 19.986192 39.988574 48.541649
3098   0  1 19.986454 39.988221 51.396398
3099   0  1 19.986590 39.988038 54.251287
3100   0  1 19.986636 42.843388  0.000001
3101   0  1 19.986600 42.843452  2.854939
3102   0  1 19.986486 42.843648  5.709827
3103   0  1 19.986279 42.843997  8.564622
3104   0  1 19.985958 42.844502 11.419321
3105   0  1 19.985530 42.845078 14.274049
3106   0  1 19.985102 42.845402 17.129163
3107   0  1 19.984919 42.845209 19.984924
3108   0  1 19.985193 42.844693 22.841144
3109   0  1 19.985514 42.844323 25.697225
3110   0  1 19.985641 42.844202 28.553121
3111   0  1 19.985514 42.844323 31.409017
3112   0  1 19.985193 42.844693 34.265097
3113   0  1 19.984919 42.845209 37.121317
3114   0  1 19.985102 42.845402 39.977078
3115   0  1 19.985530 42.845078 42.832193
3116   0  1 19.985958 42.844502 45.686920
3117   0  1 19.986279 42.843997 48.541620
3118   0  1 19.986486 42.843648 51.396414
3119   0  1 19.986600 42.843452 54.251302
3120   0  1 19.986684 45.698726  0.000001
3121   0  1 19.986656 45.698785  2.854959
3122   0  1 19.986570 45.698961  5.709893
3123   0  1 19.986427 45.699232  8.564803
3124   0  1 19.986238 45.699531 11.419750
3125   0  1 19.986045 45.699715 14.274869
3126   0  1 19.985919 45.699651 17.130277
3127   0  1 19.985937 45.699368 19.985940
3128   0  1 19.986109 45.699033 22.841719
3129   0  1 19.986290 45.698805 25.697451
3130   0  1 19.986363 45.698727 28.553121
3131   0  1 19.986290 45.698805 31.408790
3132   0  1 19.986109 45.699033 34.264523
3133   0  1 19.985937 45.699368 37.120301
3134   0  1 19.985919 45.699651 39.975964
3135   0  1 19.986045 45.699715 42.831372
3136   0  1 19.986238 45.699531 45.686492
3137   0  1 19.986427 45.699232 48.541438
3138   0  1 19.986570 45.698961 51.396349
3139   0  1 19.986656 45.698785 54.251283
3140   0  1 19.986759 48.553981  0.000001
3141   0  1 19.986739 48.554028  2.855015
3142   0  1 19.986680 48.554154  5.710034
3143   0  1 19.986593 48.554313  8.565086
3144   0  1 19.986497 48.554427 11.420228
3145   0  1 19.986428 48.554417 14.275517
3146   0  1 19.986418 48.554269 17.130954
3147   0  1 19.986485 48.554044 19.986487
3148   0  1 19.986607 48.553831 22.842051
3149   0  1 19.986719 48.553689 25.697597
3150   0  1 19.986764 48.553641 28.553121
3151   0  1 19.986719 48.553689 31.408644
3152   0  1 19.986607 48.553831 34.264190
3153   0  1 19.986485 48.554044 37.119755
3154   0  1 19.986418 48.554269 39.975287
3155   0  1 19.986428 48.554417 42.830725
3156   0  1 19.986497 48.554427 45.686013
3157   0  1 19.986593 48.554313 48.541155
3158   0  1 19.986680 48.554154 51.396207
3159   0  1 19.986739 48.554028 54.251226
3160   0  1 19.986835 51.409156  0.000001
3161   0  1 19.986822 51.409184  2.855093
3162   0  1 19.986785 51.409254  5.710209
3163   0  1 19.986736 51.409322  8.565376
3164   0  1 19.986694 51.409338 11.420622
3165   0  1 19.986681 51.409276 14.275954
3166   0  1 19.986716 51.409152 17.131357
3167   0  1 19.986794 51.409005 19.986798
3168   0  1 19.986894 51.408877 22.842249
3169   0  1 19.986975 51.408794 25.697690
3170   0  1 19.987006 51.408765 28.553121
3171   0  1 19.986975 51.408794 31.408551
3172   0  1 19.986894 51.408877 34.263992
3173   0  1 19.986794 51.409005 37.119443
3174   0  1 19.986716 51.409152 39.974884
3175   0  1 19.986681 51.409276 42.830287
3176   0  1 19.986694 51.409338 45.685620
3177   0  1 19.986736 51.409322 48.540865
3178   0  1 19.986785 51.409254 51.396033
3179   0  1 19.986822 51.409184 54.251148
3180   0  1 19.986892 54.264261  0.000001
3181   0  1 19.986883 54.264274  2.855165
3182   0  1 19.986861 54.264302  5.710357
3183   0  1 19.986834 54.264322  8.565595
3184   0  1 19.986819 54.264313 11.420885
3185   0  1 19.986834 54.264268 14.276222
3186   0  1 19.986889 54.264198 17.131592
3187   0  1 19.986976 54.264123 19.986981
3188   0  1 19.987070 54.264059 22.842370
3189   0  1 19.987141 54.264018 25.697749
3190   0  1 19.987167 54.264003 28.553121
3191   0  1 19.987141 54.264018 31.408492
3192   0  1 19.987070 54.264059 34.263871
3193   0  1 19.986976 54.264123 37.119260
3194   0  1 19.986889 54.264198 39.974649
3195   0  1 19.986834 54.264268 42.830020
3196   0  1 19.986819 54.264313 45.685356
3197   0  1 19.986834 54.264322 48.540646
3198   0  1 19.986861 54.264302 51.395884
3199   0  1 19.986883 54.264274 54.251076
3200   0  1 22.842324  0.013032  0.000001
3201   0  1 22.842321  0.013034  2.855205
3202   0  1 22.842315  0.013038  5.710440
3203   0  1 22.842311  0.013041  8.565721
3204   0  1 22.842316  0.013042 11.421043
3205   0  1 22.842339  0.013039 14.276388
3206   0  1 22.842385  0.013033 17.131741
3207   0  1 22.842451  0.013026 19.987093
3208   0  1 22.842523  0.013019 22.842440
3209   0  1 22.842579  0.013013 25.697782
3210   0  1 22.842600  0.013011 28.553121
3211   0  1 22.842579  0.013013 31.408459
3212   0  1 22.842523  0.013019 34.263801
3213   0  1 22.842451  0.013026 37.119149
3214   0  1 22.842385  0.013033 39.974500
3215   0  1 22.842339  0.013039 42.829853
3216   0  1 22.842316  0.013042 45.685199
3217   0  1 22.842311  0.013041 48.540520
3218   0  1 22.842315  0.013038 51.395801
3219   0  1 22.842321  0.013034 54.251036
3220   0  1 22.842315  2.868097  0.000001
3221   0  1 22.842310  2.868090  2.855197
3222   0  1 22.842299  2.868078  5.710423
3223   0  1 22.842291  2.868079  8.565700
3224   0  1 22.842298  2.868105 11.421026
3225   0  1 22.842331  2.868159 14.276385
3226   0  1 22.842399  2.868228 17.131755
3227   0  1 22.842494  2.868296 19.987119
3228   0  1 22.842595  2.868349 22.842469
3229   0  1 22.842673  2.868381 25.697801
3230   0  1 22.842702  2.868392 28.553121
3231   0  1 22.842673  2.868381 31.408441
3232   0  1 22.842595  2.868349 34.263772
3233   0  1 22.842494  2.868296 37.119122
3234   0  1 22.842399  2.868228 39.974486
3235   0  1 22.842331  2.868159 42.829857
3236   0  1 22.842298  2.868105 45.685216
3237   0  1 22.842291  2.868079 48.540542
3238   0  1 22.842299  2.868078 51.395818
3239   0  1 22.842310  2.868090 54.251045
3240   0  1 22.842295  5.723201  0.000001
3241   0  1 22.842286  5.723183  2.855151
3242   0  1 22.842263  5.723146  5.710331
3243   0  1 22.842240  5.723122  8.565568
3244   0  1 22.842237  5.723152 11.420880
3245   0  1 22.842274  5.723250 14.276260
3246   0  1 22.842365  5.723398 17.131676
3247   0  1 22.842500  5.723553 19.987088
3248   0  1 22.842649  5.723681 22.842470
3249   0  1 22.842766  5.723761 25.697809
3250   0  1 22.842810  5.723788 28.553121
3251   0  1 22.842766  5.723761 31.408432
3252   0  1 22.842649  5.723681 34.263772
3253   0  1 22.842500  5.723553 37.119153
3254   0  1 22.842365  5.723398 39.974566
3255   0  1 22.842274  5.723250 42.829981
3256   0  1 22.842237  5.723152 45.685361
3257   0  1 22.842240  5.723122 48.540673
3258   0  1 22.842263  5.723146 51.395910
3259   0  1 22.842286  5.723183 54.251090
3260   0  1 22.842274  8.578373  0.000001
3261   0  1 22.842259  8.578343  2.855091
3262   0  1 22.842219  8.578266  5.710199
3263   0  1 22.842168  8.578185  8.565356
3264   0  1 22.842134  8.578166 11.420609
3265   0  1 22.842155  8.578266 14.275990
3266   0  1 22.842261  8.578484 17.131473
3267   0  1 22.842451  8.578754 19.986981
3268   0  1 22.842679  8.578992 22.842440
3269   0  1 22.842862  8.579144 25.697812
3270   0  1 22.842932  8.579195 28.553121
3271   0  1 22.842862  8.579144 31.408429
3272   0  1 22.842679  8.578992 34.263801
3273   0  1 22.842451  8.578754 37.119260
3274   0  1 22.842261  8.578484 39.974768
3275   0  1 22.842155  8.578266 42.830251
3276   0  1 22.842134  8.578166 45.685632
3277   0  1 22.842168  8.578185 48.540885
3278   0  1 22.842219  8.578266 51.396043
3279   0  1 22.842259  8.578343 54.251150
3280   0  1 22.842261 11.433625  0.000001
3281   0  1 22.842241 11.433584  2.855040
3282   0  1 22.842184 11.433470  5.710075
3283   0  1 22.842096 11.433312  8.565124
3284   0  1 22.842003 11.433175 11.420246
3285   0  1 22.841962 11.433180 14.275545
3286   0  1 22.842048 11.433414 17.131075
3287   0  1 22.842298 11.433822 19.986740
3288   0  1 22.842653 11.434236 22.842363
3289   0  1 22.842954 11.434510 25.697812
3290   0  1 22.843070 11.434601 28.553121
3291   0  1 22.842954 11.434510 31.408429
3292   0  1 22.842653 11.434236 34.263878
3293   0  1 22.842298 11.433822 37.119501
3294   0  1 22.842048 11.433414 39.975167
3295   0  1 22.841962 11.433180 42.830696
3296   0  1 22.842003 11.433175 45.685995
3297   0  1 22.842096 11.433312 48.541117
3298   0  1 22.842184 11.433470 51.396166
3299   0  1 22.842241 11.433584 54.251201
3300   0  1 22.842262 14.288948  0.000001
3301   0  1 22.842240 14.288904  2.855014
3302   0  1 22.842171 14.288773  5.710002
3303   0  1 22.842051 14.288557  8.564951
3304   0  1 22.841884 14.288282 11.419893
3305   0  1 22.841709 14.288054 14.274949
3306   0  1 22.841666 14.288119 17.130367
3307   0  1 22.841927 14.288616 19.986216
3308   0  1 22.842480 14.289307 22.842171
3309   0  1 22.842991 14.289802 25.697804
3310   0  1 22.843188 14.289966 28.553121
3311   0  1 22.842991 14.289802 31.408438
3312   0  1 22.842480 14.289307 34.264070
3313   0  1 22.841927 14.288616 37.120026
3314   0  1 22.841666 14.288119 39.975874
3315   0  1 22.841709 14.288054 42.831292
3316   0  1 22.841884 14.288282 45.686349
3317   0  1 22.842051 14.288557 48.541290
3318   0  1 22.842171 14.288773 51.396239
3319   0  1 22.842240 14.288904 54.251227
3320   0  1 22.842279 17.144327  0.000001
3321   0  1 22.842257 17.144289  2.855017
3322   0  1 22.842187 17.144166  5.709992
3323   0  1 22.842053 17.143943  8.564887
3324   0  1 22.841831 17.143595 11.419678
3325   0  1 22.841497 17.143128 14.274407
3326   0  1 22.841115 17.142701 17.129320
3327   0  1 22.841137 17.142951 19.985102
3328   0  1 22.841925 17.143981 22.841645
3329   0  1 22.842810 17.144889 25.697740
3330   0  1 22.843147 17.145190 28.553121
3331   0  1 22.842810 17.144889 31.408502
3332   0  1 22.841925 17.143981 34.264596
3333   0  1 22.841137 17.142951 37.121139
3334   0  1 22.841115 17.142701 39.976921
3335   0  1 22.841497 17.143128 42.831835
3336   0  1 22.841831 17.143595 45.686564
3337   0  1 22.842053 17.143943 48.541354
3338   0  1 22.842187 17.144166 51.396249
3339   0  1 22.842257 17.144289 54.251224
3340   0  1 22.842302 19.999745  0.000001
3341   0  1 22.842282 19.999716  2.855038
3342   0  1 22.842217 19.999621  5.710031
3343   0  1 22.842089 19.999438  8.564923
3344   0  1 22.841857 19.999120 11.419649
3345   0  1 22.841446 19.998596 14.274146
3346   0  1 22.840749 19.997816 17.128459
3347   0  1 22.839854 19.997001 19.983136
3348   0  1 22.840681 19.998094 22.840257
3349   0  1 22.842301 19.999819 25.697484
3350   0  1 22.842915 20.000417 28.553121
3351   0  1 22.842301 19.999819 31.408757
3352   0  1 22.840681 19.998094 34.265984
3353   0  1 22.839854 19.997001 37.123105
3354   0  1 22.840749 19.997816 39.977782
3355   0  1 22.841446 19.998596 42.832096
3356   0  1 22.841857 19.999120 45.686592
3357   0  1 22.842089 19.999438 48.541318
3358   0  1 22.842217 19.999621 51.396211
3359   0  1 22.842282 19.999716 54.251203
3360   0  1 22.842319 22.855185  0.000001
3361   0  1 22.842301 22.855167  2.855067
3362   0  1 22.842241 22.855107  5.710089
3363   0  1 22.842121 22.854987  8.565012
3364   0  1 22.841901 22.854767 11.419748
3365   0  1 22.841504 22.854370 14.274164
3366   0  1 22.840836 22.853702 17.128143
3367   0  1 22.840166 22.853032 19.982179
3368   0  1 22.841126 22.853992 22.838790
3369   0  1 22.844144 22.857010 25.697165
3370   0  1 22.845526 22.858392 28.553121
3371   0  1 22.844144 22.857010 31.409077
3372   0  1 22.841126 22.853992 34.267451
3373   0  1 22.840166 22.853032 37.124062
3374   0  1 22.840836 22.853702 39.978099
3375   0  1 22.841504 22.854370 42.832077
3376   0  1 22.841901 22.854767 45.686493
3377   0  1 22.842121 22.854987 48.541230
3378   0  1 22.842241 22.855107 51.396152
3379   0  1 22.842301 22.855167 54.251175
3380   0  1 22.842315 25.710635  0.000001
3381   0  1 22.842297 25.710628  2.855090
3382   0  1 22.842235 25.710603  5.710140
3383   0  1 22.842112 25.710551  8.565098
3384   0  1 22.841882 25.710448 11.419875
3385   0  1 22.841437 25.710225 14.274302
3386   0  1 22.840510 25.709655 17.128032
3387   0  1 22.838438 25.707914 19.980427
3388   0  1 22.833417 25.702751 22.830981
3389   0  1 22.837437 25.706059 25.692959
3390   0  1 22.841447 25.710304 28.553121
3391   0  1 22.837437 25.706059 31.413282
3392   0  1 22.833417 25.702751 34.275260
3393   0  1 22.838438 25.707914 37.125814
3394   0  1 22.840510 25.709655 39.978210
3395   0  1 22.841437 25.710225 42.831940
3396   0  1 22.841882 25.710448 45.686366
3397   0  1 22.842112 25.710551 48.541144
3398   0  1 22.842235 25.710603 51.396102
3399   0  1 22.842297 25.710628 54.251151
3400   0  1 22.842287 28.566091  0.000001
3401   0  1 22.842265 28.566094  2.855100
3402   0  1 22.842195 28.566105  5.710162
3403   0  1 22.842052 28.566124  8.565136
3404   0  1 22.841782 28.566154 11.419936
3405   0  1 22.841246 28.566179 14.274376
3406   0  1 22.840073 28.566108 17.128017
3407   0  1 22.837206 28.565471 19.979727
3408   0  1 22.829110 28.562055 22.826723
3409   0  1 22.835111 28.566589 25.687585
3410   0  1 22.843675 28.577498 28.553121
3411   0  1 22.835111 28.566589 31.418657
3412   0  1 22.829110 28.562055 34.279519
3413   0  1 22.837206 28.565471 37.126514
3414   0  1 22.840073 28.566108 39.978225
3415   0  1 22.841246 28.566179 42.831865
3416   0  1 22.841782 28.566154 45.686306
3417   0  1 22.842052 28.566124 48.541105
3418   0  1 22.842195 28.566105 51.396079
3419   0  1 22.842265 28.566094 54.251141
3420   0  1 22.842239 31.421549  0.000001
3421   0  1 22.842214 31.421564  2.855092
3422   0  1 22.842130 31.421614  5.710142
3423   0  1 22.841959 31.421715  8.565098
3424   0  1 22.841630 31.421903 11.419861
3425   0  1 22.840962 31.422263 14.274212
3426   0  1 22.839452 31.422994 17.127582
3427   0  1 22.835566 31.424627 19.978322
3428   0  1 22.824405 31.428674 22.821994
3429   0  1 22.829400 31.438973 25.679322
3430   0  1 22.843748 31.422048 28.553121
3431   0  1 22.829400 31.438973 31.426920
3432   0  1 22.824405 31.428674 34.284247
3433   0  1 22.835566 31.424627 37.127920
3434   0  1 22.839452 31.422994 39.978659
3435   0  1 22.840962 31.422263 42.832029
3436   0  1 22.841630 31.421903 45.686381
3437   0  1 22.841959 31.421715 48.541143
3438   0  1 22.842130 31.421614 51.396099
3439   0  1 22.842214 31.421564 54.251150
3440   0  1 22.842187 34.277009  0.000001
3441   0  1 22.842158 34.277037  2.855064
3442   0  1 22.842065 34.277131  5.710080
3443   0  1 22.841872 34.277323  8.564979
3444   0  1 22.841500 34.277695 11.419639
3445   0  1 22.840739 34.278456 14.273788
3446   0  1 22.838991 34.280204 17.126718
3447   0  1 22.834336 34.284860 19.976472
3448   0  1 22.819823 34.299373 22.818288
3449   0  1 22.832176 34.287019 25.696823
3450   0  1 22.833696 34.285499 28.553121
3451   0  1 22.832176 34.287019 31.409418
3452   0  1 22.819823 34.299373 34.287953
3453   0  1 22.834336 34.284860 37.129769
3454   0  1 22.838991 34.280204 39.979524
3455   0  1 22.840739 34.278456 42.832453
3456   0  1 22.841500 34.277695 45.686602
3457   0  1 22.841872 34.277323 48.541262
3458   0  1 22.842065 34.277131 51.396162
3459   0  1 22.842158 34.277037 54.251177
3460   0  1 22.842147 37.132462  0.000001
3461   0  1 22.842118 37.132504  2.855024
3462   0  1 22.842024 37.132643  5.709989
3463   0  1 22.841834 37.132925  8.564815
3464   0  1 22.841480 37.133457 11.419368
3465   0  1 22.840809 37.134480 14.273395
3466   0  1 22.839495 37.136473 17.126473
3467   0  1 22.837011 37.139908 19.978506
3468   0  1 22.834289 37.140542 22.834318
3469   0  1 22.837628 37.136754 25.696032
3470   0  1 22.838696 37.135944 28.553121
3471   0  1 22.837628 37.136754 31.410209
3472   0  1 22.834289 37.140542 34.271923
3473   0  1 22.837011 37.139908 37.127735
3474   0  1 22.839495 37.136473 39.979768
3475   0  1 22.840809 37.134480 42.832847
3476   0  1 22.841480 37.133457 45.686874
3477   0  1 22.841834 37.132925 48.541426
3478   0  1 22.842024 37.132643 51.396252
3479   0  1 22.842118 37.132504 54.251217
3480   0  1 22.842134 39.987895  0.000001
3481   0  1 22.842108 39.987950  2.854984
3482   0  1 22.842024 39.988126  5.709906
3483   0  1 22.841861 39.988469  8.564689
3484   0  1 22.841580 39.989060 11.419242
3485   0  1 22.841113 39.990003 14.273485
3486   0  1 22.840399 39.991214 17.127595
3487   0  1 22.839561 39.991626 19.982685
3488   0  1 22.839204 39.990659 22.839231
3489   0  1 22.840172 39.989351 25.696604
3490   0  1 22.840618 39.988959 28.553121
3491   0  1 22.840172 39.989351 31.409638
3492   0  1 22.839204 39.990659 34.267010
3493   0  1 22.839561 39.991626 37.123556
3494   0  1 22.840399 39.991214 39.978647
3495   0  1 22.841113 39.990003 42.832757
3496   0  1 22.841580 39.989060 45.687000
3497   0  1 22.841861 39.988469 48.541552
3498   0  1 22.842024 39.988126 51.396336
3499   0  1 22.842108 39.987950 54.251257
3500   0  1 22.842152 42.843294  0.000001
3501   0  1 22.842131 42.843355  2.854963
3502   0  1 22.842064 42.843546  5.709875
3503   0  1 22.841943 42.843884  8.564693
3504   0  1 22.841753 42.844372 11.419409
3505   0  1 22.841490 42.844913 14.274137
3506   0  1 22.841189 42.845145 17.129232
3507   0  1 22.840957 42.844777 19.984906
3508   0  1 22.840976 42.844053 22.840952
3509   0  1 22.841312 42.843463 25.697115
3510   0  1 22.841484 42.843267 28.553121
3511   0  1 22.841312 42.843463 31.409126
3512   0  1 22.840976 42.844053 34.265290
3513   0  1 22.840957 42.844777 37.121335
3514   0  1 22.841189 42.845145 39.977010
3515   0  1 22.841490 42.844913 42.832104
3516   0  1 22.841753 42.844372 45.686833
3517   0  1 22.841943 42.843884 48.541549
3518   0  1 22.842064 42.843546 51.396366
3519   0  1 22.842131 42.843355 54.251278
3520   0  1 22.842193 45.698638  0.000001
3521   0  1 22.842178 45.698696  2.854977
3522   0  1 22.842131 45.698865  5.709930
3523   0  1 22.842051 45.699124  8.564860
3524   0  1 22.841942 45.699402 11.419824
3525   0  1 22.841819 45.699543 14.274957
3526   0  1 22.841712 45.699401 17.130362
3527   0  1 22.841664 45.699012 19.985983
3528   0  1 22.841719 45.698573 22.841689
3529   0  1 22.841856 45.698264 25.697418
3530   0  1 22.841925 45.698159 28.553121
3531   0  1 22.841856 45.698264 31.408824
3532   0  1 22.841719 45.698573 34.264552
3533   0  1 22.841664 45.699012 37.120259
3534   0  1 22.841712 45.699401 39.975879
3535   0  1 22.841819 45.699543 42.831285
3536   0  1 22.841942 45.699402 45.686418
3537   0  1 22.842051 45.699124 48.541381
3538   0  1 22.842131 45.698865 51.396311
3539   0  1 22.842178 45.698696 54.251264
3540   0  1 22.842243 48.553908  0.000001
3541   0  1 22.842233 48.553952  2.855029
3542   0  1 22.842204 48.554071  5.710064
3543   0  1 22.842159 48.554218  8.565135
3544   0  1 22.842105 48.554310 11.420297
3545   0  1 22.842056 48.554264 14.275599
3546   0  1 22.842028 48.554068 17.131033
3547   0  1 22.842036 48.553792 19.986534
3548   0  1 22.842085 48.553535 22.842058
3549   0  1 22.842153 48.553364 25.697590
3550   0  1 22.842186 48.553304 28.553121
3551   0  1 22.842153 48.553364 31.408652
3552   0  1 22.842085 48.553535 34.264183
3553   0  1 22.842036 48.553792 37.119707
3554   0  1 22.842028 48.554068 39.975209
3555   0  1 22.842056 48.554264 42.830642
3556   0  1 22.842105 48.554310 45.685945
3557   0  1 22.842159 48.554218 48.541107
3558   0  1 22.842204 48.554071 51.396177
3559   0  1 22.842233 48.553952 54.251213
3560   0  1 22.842287 51.409094  0.000001
3561   0  1 22.842282 51.409121  2.855103
3562   0  1 22.842266 51.409184  5.710231
3563   0  1 22.842244 51.409240  8.565416
3564   0  1 22.842222 51.409239 11.420680
3565   0  1 22.842210 51.409156 14.276024
3566   0  1 22.842217 51.409007 17.131420
3567   0  1 22.842246 51.408839 19.986836
3568   0  1 22.842293 51.408695 22.842260
3569   0  1 22.842340 51.408600 25.697689
3570   0  1 22.842360 51.408568 28.553121
3571   0  1 22.842340 51.408600 31.408552
3572   0  1 22.842293 51.408695 34.263981
3573   0  1 22.842246 51.408839 37.119405
3574   0  1 22.842217 51.409007 39.974822
3575   0  1 22.842210 51.409156 42.830217
3576   0  1 22.842222 51.409239 45.685561
3577   0  1 22.842244 51.409240 48.540826
3578   0  1 22.842266 51.409184 51.396010
3579   0  1 22.842282 51.409121 54.251139
3580   0  1 22.842315 54.264206  0.000001
3581   0  1 22.842312 54.264217  2.855170
3582   0  1 22.842304 54.264241  5.710371
3583   0  1 22.842295 54.264254  8.565623
3584   0  1 22.842291 54.264235 11.420929
3585   0  1 22.842300 54.264180 14.276274
3586   0  1 22.842327 54.264102 17.131637
3587   0  1 22.842373 54.264020 19.987005
3588   0  1 22.842428 54.263952 22.842376
3589   0  1 22.842473 54.263907 25.697748
3590   0  1 22.842491 54.263892 28.553121
3591   0  1 22.842473 54.263907 31.408493
3592   0  1 22.842428 54.263952 34.263865
3593   0  1 22.842373 54.264020 37.119236
3594   0  1 22.842327 54.264102 39.974605
3595   0  1 22.842300 54.264180 42.829968
3596   0  1 22.842291 54.264235 45.685312
3597   0  1 22.842295 54.264254 48.540618
3598   0  1 22.842304 54.264241 51.395871
3599   0  1 22.842312 54.264217 54.251071
3600   0  1 25.697742  0.012973  0.000001
3601   0  1 25.697741  0.012974  2.855204
3602   0  1 25.697739  0.012976  5.710441
3603   0  1 25.697739  0.012977  8.565726
3604   0  1 25.697743  0.012977 11.421055
3605   0  1 25.697755  0.012975 14.276406
3606   0  1 25.697778  0.012972 17.131757
3607   0  1 25.697811  0.012968 19.987102
3608   0  1 25.697848  0.012964 22.842441
3609   0  1 25.697878  0.012961 25.697780
3610   0  1 25.697890  0.012960 28.553121
3611   0  1 25.697878  0.012961 31.408462
3612   0  1 25.697848  0.012964 34.263801
3613   0  1 25.697811  0.012968 37.119140
3614   0  1 25.697778  0.012972 39.974484
3615   0  1 25.697755  0.012975 42.829836
3616   0  1 25.697743  0.012977 45.685186
3617   0  1 25.697739  0.012977 48.540515
3618   0  1 25.697739  0.012976 51.395801
3619   0  1 25.697741  0.012974 54.251037
3620   0  1 25.697730  2.868040  0.000001
3621   0  1 25.697727  2.868032  2.855189
3622   0  1 25.697720  2.868018  5.710410
3623   0  1 25.697715  2.868017  8.565685
3624   0  1 25.697719  2.868045 11.421014
3625   0  1 25.697742  2.868105 14.276375
3626   0  1 25.697786  2.868182 17.131743
3627   0  1 25.697849  2.868258 19.987102
3628   0  1 25.697920  2.868319 22.842448
3629   0  1 25.697978  2.868356 25.697787
3630   0  1 25.698000  2.868369 28.553121
3631   0  1 25.697978  2.868356 31.408455
3632   0  1 25.697920  2.868319 34.263793
3633   0  1 25.697849  2.868258 37.119139
3634   0  1 25.697786  2.868182 39.974498
3635   0  1 25.697742  2.868105 42.829866
3636   0  1 25.697719  2.868045 45.685228
3637   0  1 25.697715  2.868017 48.540556
3638   0  1 25.697720  2.868018 51.395831
3639   0  1 25.697727  2.868032 54.251053
3640   0  1 25.697717  5.723150  0.000001
3641   0  1 25.697711  5.723130  2.855138
3642   0  1 25.697694  5.723086  5.710305
3643   0  1 25.697676  5.723057  8.565532
3644   0  1 25.697672  5.723086 11.420839
3645   0  1 25.697698  5.723192 14.276217
3646   0  1 25.697763  5.723354 17.131630
3647   0  1 25.697866  5.723527 19.987038
3648   0  1 25.697986  5.723670 22.842421
3649   0  1 25.698087  5.723762 25.697779
3650   0  1 25.698127  5.723793 28.553121
3651   0  1 25.698087  5.723762 31.408462
3652   0  1 25.697986  5.723670 34.263820
3653   0  1 25.697866  5.723527 37.119203
3654   0  1 25.697763  5.723354 39.974612
3655   0  1 25.697698  5.723192 42.830024
3656   0  1 25.697672  5.723086 45.685402
3657   0  1 25.697676  5.723057 48.540709
3658   0  1 25.697694  5.723086 51.395937
3659   0  1 25.697711  5.723130 54.251104
3660   0  1 25.697710  8.578334  0.000001
3661   0  1 25.697699  8.578300  2.855074
3662   0  1 25.697669  8.578212  5.710163
3663   0  1 25.697629  8.578114  8.565299
3664   0  1 25.697601  8.578082 11.420534
3665   0  1 25.697614  8.578184 14.275902
3666   0  1 25.697693  8.578424 17.131378
3667   0  1 25.697845  8.578727 19.986883
3668   0  1 25.698042  8.579000 22.842350
3669   0  1 25.698219  8.579179 25.697758
3670   0  1 25.698291  8.579241 28.553121
3671   0  1 25.698219  8.579179 31.408483
3672   0  1 25.698042  8.579000 34.263891
3673   0  1 25.697845  8.578727 37.119358
3674   0  1 25.697693  8.578424 39.974863
3675   0  1 25.697614  8.578184 42.830339
3676   0  1 25.697601  8.578082 45.685708
3677   0  1 25.697629  8.578114 48.540942
3678   0  1 25.697669  8.578212 51.396078
3679   0  1 25.697699  8.578300 54.251167
3680   0  1 25.697713 11.433602  0.000001
3681   0  1 25.697699 11.433557  2.855025
3682   0  1 25.697656 11.433427  5.710040
3683   0  1 25.697589 11.433239  8.565056
3684   0  1 25.697515 11.433067 11.420135
3685   0  1 25.697478 11.433047 14.275393
3686   0  1 25.697540 11.433299 17.130900
3687   0  1 25.697743 11.433767 19.986561
3688   0  1 25.698063 11.434260 22.842203
3689   0  1 25.698389 11.434609 25.697724
3690   0  1 25.698527 11.434730 28.553121
3691   0  1 25.698389 11.434609 31.408517
3692   0  1 25.698063 11.434260 34.264039
3693   0  1 25.697743 11.433767 37.119680
3694   0  1 25.697540 11.433299 39.975341
3695   0  1 25.697478 11.433047 42.830848
3696   0  1 25.697515 11.433067 45.686106
3697   0  1 25.697589 11.433239 48.541185
3698   0  1 25.697656 11.433427 51.396201
3699   0  1 25.697699 11.433557 54.251216
3700   0  1 25.697726 14.288942  0.000001
3701   0  1 25.697711 14.288893  2.855008
3702   0  1 25.697663 14.288746  5.709980
3703   0  1 25.697576 14.288495  8.564894
3704   0  1 25.697448 14.288159 11.419767
3705   0  1 25.697303 14.287849 14.274723
3706   0  1 25.697253 14.287875 17.130055
3707   0  1 25.697457 14.288451 19.985877
3708   0  1 25.697964 14.289321 22.841873
3709   0  1 25.698603 14.290034 25.697674
3710   0  1 25.698885 14.290283 28.553121
3711   0  1 25.698603 14.290034 31.408567
3712   0  1 25.697964 14.289321 34.264368
3713   0  1 25.697457 14.288451 37.120364
3714   0  1 25.697253 14.287875 39.976186
3715   0  1 25.697303 14.287849 42.831518
3716   0  1 25.697448 14.288159 45.686474
3717   0  1 25.697576 14.288495 48.541347
3718   0  1 25.697663 14.288746 51.396262
3719   0  1 25.697711 14.288893 54.251234
3720   0  1 25.697746 17.144330  0.000001
3721   0  1 25.697732 17.144288  2.855021
3722   0  1 25.697689 17.144154  5.709993
3723   0  1 25.697601 17.143902  8.564867
3724   0  1 25.697441 17.143488 11.419592
3725   0  1 25.697175 17.142886 14.274166
3726   0  1 25.696824 17.142247 17.128814
3727   0  1 25.696764 17.142434 19.984398
3728   0  1 25.697455 17.143778 22.841001
3729   0  1 25.698772 17.145311 25.697572
3730   0  1 25.699383 17.145865 28.553121
3731   0  1 25.698772 17.145311 31.408669
3732   0  1 25.697455 17.143778 34.265240
3733   0  1 25.696764 17.142434 37.121844
3734   0  1 25.696824 17.142247 39.977428
3735   0  1 25.697175 17.142886 42.832075
3736   0  1 25.697441 17.143488 45.686649
3737   0  1 25.697601 17.143902 48.541374
3738   0  1 25.697689 17.144154 51.396248
3739   0  1 25.697732 17.144288 54.251221
3740   0  1 25.697763 19.999748  0.000001
3741   0  1 25.697753 19.999717  2.855053
3742   0  1 25.697720 19.999617  5.710059
3743   0  1 25.697648 19.999417  8.564958
3744   0  1 25.697505 19.999057 11.419661
3745   0  1 25.697207 19.998412 14.274038
3746   0  1 25.696574 19.997288 17.127954
3747   0  1 25.695408 19.995652 19.981658
3748   0  1 25.695600 19.996539 22.838376
3749   0  1 25.698185 19.999656 25.697011
3750   0  1 25.699611 20.001008 28.553121
3751   0  1 25.698185 19.999656 31.409230
3752   0  1 25.695600 19.996539 34.267866
3753   0  1 25.695408 19.995652 37.124583
3754   0  1 25.696574 19.997288 39.978287
3755   0  1 25.697207 19.998412 42.832203
3756   0  1 25.697505 19.999057 45.686580
3757   0  1 25.697648 19.999417 48.541284
3758   0  1 25.697720 19.999617 51.396183
3759   0  1 25.697753 19.999717 54.251188
3760   0  1 25.697769 22.855181  0.000001
3761   0  1 25.697762 22.855163  2.855090
3762   0  1 25.697737 22.855101  5.710140
3763   0  1 25.697685 22.854978  8.565098
3764   0  1 25.697582 22.854748 11.419875
3765   0  1 25.697359 22.854303 14.274302
3766   0  1 25.696789 22.853376 17.128032
3767   0  1 25.695049 22.851303 19.980427
3768   0  1 25.689885 22.846283 22.830981
3769   0  1 25.693193 22.850303 25.692959
3770   0  1 25.697438 22.854313 28.553121
3771   0  1 25.693193 22.850303 31.413282
3772   0  1 25.689885 22.846283 34.275260
3773   0  1 25.695049 22.851303 37.125814
3774   0  1 25.696789 22.853376 39.978210
3775   0  1 25.697359 22.854303 42.831940
3776   0  1 25.697582 22.854748 45.686366
3777   0  1 25.697685 22.854978 48.541144
3778   0  1 25.697737 22.855101 51.396102
3779   0  1 25.697762 22.855163 54.251151
3780   0  1 25.697756 25.710622  0.000001
3781   0  1 25.697749 25.710615  2.855118
3782   0  1 25.697724 25.710590  5.710205
3783   0  1 25.697675 25.710541  8.565218
3784   0  1 25.697586 25.710452 11.420088
3785   0  1 25.697418 25.710284 14.274666
3786   0  1 25.697076 25.709942 17.128597
3787   0  1 25.696487 25.709353 19.981190
3788   0  1 25.697311 25.710177 22.833326
3789   0  1 25.708064 25.720930 25.696712
3790   0  1 25.717655 25.730521 28.553121
3791   0  1 25.708064 25.720930 31.409530
3792   0  1 25.697311 25.710177 34.272915
3793   0  1 25.696487 25.709353 37.125051
3794   0  1 25.697076 25.709942 39.977644
3795   0  1 25.697418 25.710284 42.831575
3796   0  1 25.697586 25.710452 45.686153
3797   0  1 25.697675 25.710541 48.541023
3798   0  1 25.697724 25.710590 51.396037
3799   0  1 25.697749 25.710615 54.251123
3800   0  1 25.697724 28.566067  0.000001
3801   0  1 25.697714 28.566070  2.855130
3802   0  1 25.697681 28.566079  5.710232
3803   0  1 25.697614 28.566099  8.565272
3804   0  1 25.697488 28.566139 11.420195
3805   0  1 25.697241 28.566219 14.274890
3806   0  1 25.696687 28.566374 17.129092
3807   0  1 25.695114 28.566436 19.981956
3808   0  1 25.688580 28.563523 22.830198
3809   0  1 25.646356 28.530922 25.650603
3810   0  1 25.592638 28.574557 28.553121
3811   0  1 25.646356 28.530922 31.455639
3812   0  1 25.688580 28.563523 34.276044
3813   0  1 25.695114 28.566436 37.124285
3814   0  1 25.696687 28.566374 39.977150
3815   0  1 25.697241 28.566219 42.831351
3816   0  1 25.697488 28.566139 45.686047
3817   0  1 25.697614 28.566099 48.540969
3818   0  1 25.697681 28.566079 51.396009
3819   0  1 25.697714 28.566070 54.251111
3820   0  1 25.697683 31.421512  0.000001
3821   0  1 25.697669 31.421526  2.855121
3822   0  1 25.697625 31.421571  5.710211
3823   0  1 25.697533 31.421662  8.565232
3824   0  1 25.697357 31.421838 11.420119
3825   0  1 25.696999 31.422196 14.274741
3826   0  1 25.696156 31.423040 17.128746
3827   0  1 25.693607 31.425589 19.980842
3828   0  1 25.683163 31.436032 22.825428
3829   0  1 25.596117 31.523079 25.587553
3830   0  1 25.745527 31.373669 28.553121
3831   0  1 25.596117 31.523079 31.518689
3832   0  1 25.683163 31.436032 34.280814
3833   0  1 25.693607 31.425589 37.125399
3834   0  1 25.696156 31.423040 39.977496
3835   0  1 25.696999 31.422196 42.831500
3836   0  1 25.697357 31.421838 45.686122
3837   0  1 25.697533 31.421662 48.541010
3838   0  1 25.697625 31.421571 51.396030
3839   0  1 25.697669 31.421526 54.251120
3840   0  1 25.697646 34.276956  0.000001
3841   0  1 25.697631 34.276982  2.855092
3842   0  1 25.697581 34.277065  5.710142
3843   0  1 25.697480 34.277236  8.565098
3844   0  1 25.697292 34.277565 11.419861
3845   0  1 25.696932 34.278233 14.274212
3846   0  1 25.696202 34.279743 17.127582
3847   0  1 25.694568 34.283630 19.978322
3848   0  1 25.690522 34.294790 22.821994
3849   0  1 25.680222 34.289795 25.679322
3850   0  1 25.697147 34.275447 28.553121
3851   0  1 25.680222 34.289795 31.426920
3852   0  1 25.690522 34.294790 34.284247
3853   0  1 25.694568 34.283630 37.127920
3854   0  1 25.696202 34.279743 39.978659
3855   0  1 25.696932 34.278233 42.832029
3856   0  1 25.697292 34.277565 45.686381
3857   0  1 25.697480 34.277236 48.541143
3858   0  1 25.697581 34.277065 51.396099
3859   0  1 25.697631 34.276982 54.251150
3860   0  1 25.697626 37.132394  0.000001
3861   0  1 25.697612 37.132432  2.855049
3862   0  1 25.697567 37.132558  5.710045
3863   0  1 25.697479 37.132811  8.564918
3864   0  1 25.697326 37.133287 11.419548
3865   0  1 25.697068 37.134192 14.273710
3866   0  1 25.696635 37.135924 17.127032
3867   0  1 25.695873 37.138764 19.979428
3868   0  1 25.694234 37.138368 22.835030
3869   0  1 25.693098 37.134459 25.693090
3870   0  1 25.695680 37.132193 28.553121
3871   0  1 25.693098 37.134459 31.413151
3872   0  1 25.694234 37.138368 34.271212
3873   0  1 25.695873 37.138764 37.126813
3874   0  1 25.696635 37.135924 39.979209
3875   0  1 25.697068 37.134192 42.832531
3876   0  1 25.697326 37.133287 45.686694
3877   0  1 25.697479 37.132811 48.541323
3878   0  1 25.697567 37.132558 51.396196
3879   0  1 25.697612 37.132432 54.251192
3880   0  1 25.697629 39.987818  0.000001
3881   0  1 25.697618 39.987868  2.855007
3882   0  1 25.697584 39.988030  5.709955
3883   0  1 25.697522 39.988344  8.564777
3884   0  1 25.697423 39.988882 11.419387
3885   0  1 25.697272 39.989728 14.273716
3886   0  1 25.697037 39.990757 17.127949
3887   0  1 25.696629 39.990852 19.983143
3888   0  1 25.696107 39.989459 22.839497
3889   0  1 25.695966 39.987779 25.696110
3890   0  1 25.696421 39.987137 28.553121
3891   0  1 25.695966 39.987779 31.410132
3892   0  1 25.696107 39.989459 34.266745
3893   0  1 25.696629 39.990852 37.123098
3894   0  1 25.697037 39.990757 39.978293
3895   0  1 25.697272 39.989728 42.832525
3896   0  1 25.697423 39.988882 45.686855
3897   0  1 25.697522 39.988344 48.541464
3898   0  1 25.697584 39.988030 51.396286
3899   0  1 25.697618 39.987868 54.251234
3900   0  1 25.697651 42.843214  0.000001
3901   0  1 25.697644 42.843271  2.854983
3902   0  1 25.697623 42.843449  5.709919
3903   0  1 25.697586 42.843762  8.564768
3904   0  1 25.697530 42.844207 11.419527
3905   0  1 25.697445 42.844676 14.274313
3906   0  1 25.697310 42.844792 17.129471
3907   0  1 25.697114 42.844260 19.985171
3908   0  1 25.696921 42.843355 22.841108
3909   0  1 25.696866 42.842612 25.697052
3910   0  1 25.696945 42.842350 28.553121
3911   0  1 25.696866 42.842612 31.409190
3912   0  1 25.696921 42.843355 34.265134
3913   0  1 25.697114 42.844260 37.121070
3914   0  1 25.697310 42.844792 39.976770
3915   0  1 25.697445 42.844676 42.831928
3916   0  1 25.697530 42.844207 45.686714
3917   0  1 25.697586 42.843762 48.541473
3918   0  1 25.697623 42.843449 51.396322
3919   0  1 25.697644 42.843271 54.251258
3920   0  1 25.697683 45.698563  0.000001
3921   0  1 25.697680 45.698617  2.854995
3922   0  1 25.697669 45.698775  5.709968
3923   0  1 25.697650 45.699014  8.564924
3924   0  1 25.697620 45.699259 11.419921
3925   0  1 25.697571 45.699350 14.275092
3926   0  1 25.697496 45.699139 17.130529
3927   0  1 25.697398 45.698672 19.986146
3928   0  1 25.697308 45.698162 22.841790
3929   0  1 25.697269 45.697800 25.697432
3930   0  1 25.697276 45.697674 28.553121
3931   0  1 25.697269 45.697800 31.408810
3932   0  1 25.697308 45.698162 34.264451
3933   0  1 25.697398 45.698672 37.120095
3934   0  1 25.697496 45.699139 39.975712
3935   0  1 25.697571 45.699350 42.831149
3936   0  1 25.697620 45.699259 45.686320
3937   0  1 25.697650 45.699014 48.541317
3938   0  1 25.697669 45.698775 51.396273
3939   0  1 25.697680 45.698617 54.251247
3940   0  1 25.697714 48.553840  0.000001
3941   0  1 25.697713 48.553881  2.855043
3942   0  1 25.697709 48.553991  5.710096
3943   0  1 25.697701 48.554122  8.565187
3944   0  1 25.697685 48.554190 11.420374
3945   0  1 25.697658 48.554114 14.275701
3946   0  1 25.697618 48.553882 17.131147
3947   0  1 25.697568 48.553573 19.986637
3948   0  1 25.697524 48.553289 22.842123
3949   0  1 25.697500 48.553100 25.697611
3950   0  1 25.697497 48.553035 28.553121
3951   0  1 25.697500 48.553100 31.408630
3952   0  1 25.697524 48.553289 34.264119
3953   0  1 25.697568 48.553573 37.119604
3954   0  1 25.697618 48.553882 39.975095
3955   0  1 25.697658 48.554114 42.830540
3956   0  1 25.697685 48.554190 45.685867
3957   0  1 25.697701 48.554122 48.541054
3958   0  1 25.697709 48.553991 51.396146
3959   0  1 25.697713 48.553881 54.251198
3960   0  1 25.697736 51.409032  0.000001
3961   0  1 25.697736 51.409056  2.855113
3962   0  1 25.697735 51.409112  5.710254
3963   0  1 25.697733 51.409158  8.565455
3964   0  1 25.697726 51.409143 11.420737
3965   0  1 25.697714 51.409042 14.276095
3966   0  1 25.697697 51.408878 17.131494
3967   0  1 25.697679 51.408698 19.986899
3968   0  1 25.697664 51.408545 22.842300
3969   0  1 25.697656 51.408446 25.697705
3970   0  1 25.697655 51.408412 28.553121
3971   0  1 25.697656 51.408446 31.408536
3972   0  1 25.697664 51.408545 34.263942
3973   0  1 25.697679 51.408698 37.119342
3974   0  1 25.697697 51.408878 39.974747
3975   0  1 25.697714 51.409042 42.830146
3976   0  1 25.697726 51.409143 45.685504
3977   0  1 25.697733 51.409158 48.540787
3978   0  1 25.697735 51.409112 51.395987
3979   0  1 25.697736 51.409056 54.251128
3980   0  1 25.697745 54.264146  0.000001
3981   0  1 25.697745 54.264156  2.855175
3982   0  1 25.697745 54.264176  5.710383
3983   0  1 25.697745 54.264183  8.565646
3984   0  1 25.697745 54.264157 11.420964
3985   0  1 25.697746 54.264096 14.276317
3986   0  1 25.697749 54.264013 17.131680
3987   0  1 25.697756 54.263929 19.987039
3988   0  1 25.697766 54.263860 22.842395
3989   0  1 25.697776 54.263816 25.697755
3990   0  1 25.697780 54.263801 28.553121
3991   0  1 25.697776 54.263816 31.408486
3992   0  1 25.697766 54.263860 34.263846
3993   0  1 25.697756 54.263929 37.119202
3994   0  1 25.697749 54.264013 39.974561
3995   0  1 25.697746 54.264096 42.829924
3996   0  1 25.697745 54.264157 45.685277
3997   0  1 25.697745 54.264183 48.540595
3998   0  1 25.697745 54.264176 51.395858
3999   0  1 25.697745 54.264156 54.251066
4000   0  1 28.553165  0.012911  0.000001
4001   0  1 28.553165  0.012911  2.855204
4002   0  1 28.553165  0.012911  5.710441
4003   0  1 28.553165  0.012911  8.565728
4004   0  1 28.553165  0.012911 11.421059
4005   0  1 28.553165  0.012911 14.276411
4006   0  1 28.553165  0.012911 17.131763
4007   0  1 28.553165  0.012911 19.987105
4008   0  1 28.553165  0.012911 22.842441
4009   0  1 28.553165  0.012911 25.697779
4010   0  1 28.553165  0.012911 28.553121
4011   0  1 28.553165  0.012911 31.408462
4012   0  1 28.553165  0.012911 34.263800
4013   0  1 28.553165  0.012911 37.119136
4014   0  1 28.553165  0.012911 39.974479
4015   0  1 28.553165  0.012911 42.829830
4016   0  1 28.553165  0.012911 45.685182
4017   0  1 28.553165  0.012911 48.540513
4018   0  1 28.553165  0.012911 51.395801
4019   0  1 28.553165  0.012911 54.251038
4020   0  1 28.553155  2.867978  0.000001
4021   0  1 28.553153  2.867970  2.855182
4022   0  1 28.553149  2.867953  5.710397
4023   0  1 28.553145  2.867949  8.565667
4024   0  1 28.553146  2.867978 11.420993
4025   0  1 28.553156  2.868040 14.276352
4026   0  1 28.553177  2.868123 17.131717
4027   0  1 28.553207  2.868205 19.987074
4028   0  1 28.553240  2.868271 22.842422
4029   0  1 28.553267  2.868313 25.697770
4030   0  1 28.553277  2.868327 28.553121
4031   0  1 28.553267  2.868313 31.408472
4032   0  1 28.553240  2.868271 34.263819
4033   0  1 28.553207  2.868205 37.119167
4034   0  1 28.553177  2.868123 39.974524
4035   0  1 28.553156  2.868040 42.829890
4036   0  1 28.553146  2.867978 45.685249
4037   0  1 28.553145  2.867949 48.540574
4038   0  1 28.553149  2.867953 51.395845
4039   0  1 28.553153  2.867970 54.251060
4040   0  1 28.553151  5.723092  0.000001
4041   0  1 28.553147  5.723070  2.855125
4042   0  1 28.553137  5.723020  5.710279
4043   0  1 28.553127  5.722983  8.565494
4044   0  1 28.553126  5.723008 11.420791
4045   0  1 28.553142  5.723115 14.276161
4046   0  1 28.553183  5.723284 17.131568
4047   0  1 28.553246  5.723466 19.986971
4048   0  1 28.553320  5.723618 22.842359
4049   0  1 28.553382  5.723716 25.697739
4050   0  1 28.553407  5.723750 28.553121
4051   0  1 28.553382  5.723716 31.408502
4052   0  1 28.553320  5.723618 34.263882
4053   0  1 28.553246  5.723466 37.119270
4054   0  1 28.553183  5.723284 39.974674
4055   0  1 28.553142  5.723115 42.830080
4056   0  1 28.553126  5.723008 45.685451
4057   0  1 28.553127  5.722983 48.540748
4058   0  1 28.553137  5.723020 51.395963
4059   0  1 28.553147  5.723070 54.251117
4060   0  1 28.553157  8.578283  0.000001
4061   0  1 28.553151  8.578245  2.855058
4062   0  1 28.553135  8.578145  5.710129
4063   0  1 28.553115  8.578031  8.565243
4064   0  1 28.553103  8.577983 11.420455
4065   0  1 28.553117  8.578079 14.275805
4066   0  1 28.553174  8.578325 17.131268
4067   0  1 28.553277  8.578643 19.986762
4068   0  1 28.553408  8.578931 22.842232
4069   0  1 28.553528  8.579124 25.697677
4070   0  1 28.553580  8.579191 28.553121
4071   0  1 28.553528  8.579124 31.408564
4072   0  1 28.553408  8.578931 34.264009
4073   0  1 28.553277  8.578643 37.119479
4074   0  1 28.553174  8.578325 39.974974
4075   0  1 28.553117  8.578079 42.830436
4076   0  1 28.553103  8.577983 45.685787
4077   0  1 28.553115  8.578031 48.540999
4078   0  1 28.553135  8.578145 51.396113
4079   0  1 28.553151  8.578245 54.251183
4080   0  1 28.553173 11.433559  0.000001
4081   0  1 28.553166 11.433509  2.855011
4082   0  1 28.553147 11.433364  5.710005
4083   0  1 28.553116 11.433150  8.564990
4084   0  1 28.553084 11.432941 11.420027
4085   0  1 28.553076 11.432892 14.275242
4086   0  1 28.553135 11.433139 17.130717
4087   0  1 28.553282 11.433632 19.986356
4088   0  1 28.553504 11.434160 22.841987
4089   0  1 28.553730 11.434539 25.697559
4090   0  1 28.553840 11.434677 28.553121
4091   0  1 28.553730 11.434539 31.408682
4092   0  1 28.553504 11.434160 34.264254
4093   0  1 28.553282 11.433632 37.119885
4094   0  1 28.553135 11.433139 39.975524
4095   0  1 28.553076 11.432892 42.830999
4096   0  1 28.553084 11.432941 45.686215
4097   0  1 28.553116 11.433150 48.541251
4098   0  1 28.553147 11.433364 51.396237
4099   0  1 28.553166 11.433509 54.251231
4100   0  1 28.553196 14.288907  0.000001
4101   0  1 28.553191 14.288854  2.854998
4102   0  1 28.553173 14.288691  5.709954
4103   0  1 28.553139 14.288408  8.564835
4104   0  1 28.553086 14.288016 11.419648
4105   0  1 28.553030 14.287627 14.274514
4106   0  1 28.553041 14.287599 17.129759
4107   0  1 28.553218 14.288200 19.985525
4108   0  1 28.553583 14.289155 22.841476
4109   0  1 28.554028 14.289951 25.697318
4110   0  1 28.554294 14.290272 28.553121
4111   0  1 28.554028 14.289951 31.408924
4112   0  1 28.553583 14.289155 34.264765
4113   0  1 28.553218 14.288200 37.120716
4114   0  1 28.553041 14.287599 39.976482
4115   0  1 28.553030 14.287627 42.831727
4116   0  1 28.553086 14.288016 45.686593
4117   0  1 28.553139 14.288408 48.541406
4118   0  1 28.553173 14.288691 51.396288
4119   0  1 28.553191 14.288854 54.251243
4120   0  1 28.553218 17.144301  0.000001
4121   0  1 28.553216 17.144256  2.855019
4122   0  1 28.553207 17.144108  5.709984
4123   0  1 28.553184 17.143826  8.564836
4124   0  1 28.553133 17.143350 11.419504
4125   0  1 28.553031 17.142624 14.273948
4126   0  1 28.552895 17.141793 17.128373
4127   0  1 28.552973 17.141902 19.983767
4128   0  1 28.553535 17.143427 22.840235
4129   0  1 28.554473 17.145242 25.696735
4130   0  1 28.555242 17.146152 28.553121
4131   0  1 28.554473 17.145242 31.409506
4132   0  1 28.553535 17.143427 34.266006
4133   0  1 28.552973 17.141902 37.122474
4134   0  1 28.552895 17.141793 39.977868
4135   0  1 28.553031 17.142624 42.832293
4136   0  1 28.553133 17.143350 45.686738
4137   0  1 28.553184 17.143826 48.541406
4138   0  1 28.553207 17.144108 51.396257
4139   0  1 28.553216 17.144256 54.251223
4140   0  1 28.553230 19.999721  0.000001
4141   0  1 28.553231 19.999687  2.855058
4142   0  1 28.553234 19.999576  5.710068
4143   0  1 28.553234 19.999353  8.564964
4144   0  1 28.553218 19.998940 11.419643
4145   0  1 28.553144 19.998173 14.273924
4146   0  1 28.552903 19.996752 17.127539
4147   0  1 28.552377 19.994536 19.980551
4148   0  1 28.552845 19.995448 22.836723
4149   0  1 28.554977 19.999583 25.694935
4150   0  1 28.557656 20.002647 28.553121
4151   0  1 28.554977 19.999583 31.411307
4152   0  1 28.552845 19.995448 34.269518
4153   0  1 28.552377 19.994536 37.125690
4154   0  1 28.552903 19.996752 39.978702
4155   0  1 28.553144 19.998173 42.832317
4156   0  1 28.553218 19.998940 45.686598
4157   0  1 28.553234 19.999353 48.541277
4158   0  1 28.553234 19.999576 51.396174
4159   0  1 28.553231 19.999687 54.251183
4160   0  1 28.553225 22.855153  0.000001
4161   0  1 28.553228 22.855131  2.855100
4162   0  1 28.553239 22.855061  5.710162
4163   0  1 28.553258 22.854918  8.565136
4164   0  1 28.553288 22.854648 11.419936
4165   0  1 28.553313 22.854112 14.274376
4166   0  1 28.553242 22.852939 17.128017
4167   0  1 28.552605 22.850072 19.979727
4168   0  1 28.549189 22.841976 22.826723
4169   0  1 28.553723 22.847977 25.687585
4170   0  1 28.564632 22.856541 28.553121
4171   0  1 28.553723 22.847977 31.418657
4172   0  1 28.549189 22.841976 34.279519
4173   0  1 28.552605 22.850072 37.126514
4174   0  1 28.553242 22.852939 39.978225
4175   0  1 28.553313 22.854112 42.831865
4176   0  1 28.553288 22.854648 45.686306
4177   0  1 28.553258 22.854918 48.541105
4178   0  1 28.553239 22.855061 51.396079
4179   0  1 28.553228 22.855131 54.251141
4180   0  1 28.553201 25.710590  0.000001
4181   0  1 28.553204 25.710580  2.855130
4182   0  1 28.553213 25.710547  5.710232
4183   0  1 28.553233 25.710480  8.565272
4184   0  1 28.553273 25.710354 11.420195
4185   0  1 28.553353 25.710107 14.274890
4186   0  1 28.553508 25.709553 17.129092
4187   0  1 28.553570 25.707980 19.981956
4188   0  1 28.550657 25.701446 22.830198
4189   0  1 28.518056 25.659222 25.650603
4190   0  1 28.561691 25.605504 28.553121
4191   0  1 28.518056 25.659222 31.455639
4192   0  1 28.550657 25.701446 34.276044
4193   0  1 28.553570 25.707980 37.124285
4194   0  1 28.553508 25.709553 39.977150
4195   0  1 28.553353 25.710107 42.831351
4196   0  1 28.553273 25.710354 45.686047
4197   0  1 28.553233 25.710480 48.540969
4198   0  1 28.553213 25.710547 51.396009
4199   0  1 28.553204 25.710580 54.251111
4200   0  1 28.553165 28.566031  0.000001
4201   0  1 28.553165 28.566031  2.855141
4202   0  1 28.553165 28.566031  5.710257
4203   0  1 28.553165 28.566031  8.565322
4204   0  1 28.553165 28.566031 11.420294
4205   0  1 28.553165 28.566031 14.275101
4206   0  1 28.553165 28.566031 17.129595
4207   0  1 28.553165 28.566031 19.983325
4208   0  1 28.553165 28.566031 22.835910
4209   0  1 28.553165 28.566031 25.733339
4210   0  1 27.810536 29.308659 28.553121
4211   0  1 28.553165 28.566031 31.372902
4212   0  1 28.553165 28.566031 34.270331
4213   0  1 28.553165 28.566031 37.122917
4214   0  1 28.553165 28.566031 39.976647
4215   0  1 28.553165 28.566031 42.831140
4216   0  1 28.553165 28.566031 45.685947
4217   0  1 28.553165 28.566031 48.540919
4218   0  1 28.553165 28.566031 51.395984
4219   0  1 28.553165 28.566031 54.251101
4220   0  1 28.553129 31.421471  0.000001
4221   0  1 28.553126 31.421481  2.855130
4222   0  1 28.553116 31.421515  5.710232
4223   0  1 28.553096 31.421582  8.565272
4224   0  1 28.553056 31.421707 11.420195
4225   0  1 28.552976 31.421954 14.274890
4226   0  1 28.552822 31.422508 17.129092
4227   0  1 28.552759 31.424081 19.981956
4228   0  1 28.555672 31.430616 22.830198
4229   0  1 28.588273 31.472840 25.650603
4230   0  1 28.544638 31.526557 28.553121
4231   0  1 28.588273 31.472840 31.455639
4232   0  1 28.555672 31.430616 34.276044
4233   0  1 28.552759 31.424081 37.124285
4234   0  1 28.552822 31.422508 39.977150
4235   0  1 28.552976 31.421954 42.831351
4236   0  1 28.553056 31.421707 45.686047
4237   0  1 28.553096 31.421582 48.540969
4238   0  1 28.553116 31.421515 51.396009
4239   0  1 28.553126 31.421481 54.251111
4240   0  1 28.553105 34.276909  0.000001
4241   0  1 28.553101 34.276930  2.855100
4242   0  1 28.553091 34.277001  5.710162
4243   0  1 28.553071 34.277143  8.565136
4244   0  1 28.553042 34.277413 11.419936
4245   0  1 28.553017 34.277950 14.274376
4246   0  1 28.553087 34.279122 17.128017
4247   0  1 28.553725 34.281989 19.979727
4248   0  1 28.557141 34.290085 22.826723
4249   0  1 28.552607 34.284084 25.687585
4250   0  1 28.541697 34.275521 28.553121
4251   0  1 28.552607 34.284084 31.418657
4252   0  1 28.557141 34.290085 34.279519
4253   0  1 28.553725 34.281989 37.126514
4254   0  1 28.553087 34.279122 39.978225
4255   0  1 28.553017 34.277950 42.831865
4256   0  1 28.553042 34.277413 45.686306
4257   0  1 28.553071 34.277143 48.541105
4258   0  1 28.553091 34.277001 51.396079
4259   0  1 28.553101 34.276930 54.251141
4260   0  1 28.553099 37.132340  0.000001
4261   0  1 28.553098 37.132374  2.855058
4262   0  1 28.553096 37.132486  5.710068
4263   0  1 28.553095 37.132709  8.564964
4264   0  1 28.553111 37.133121 11.419643
4265   0  1 28.553186 37.133888 14.273924
4266   0  1 28.553426 37.135309 17.127539
4267   0  1 28.553952 37.137526 19.980551
4268   0  1 28.553484 37.136614 22.836723
4269   0  1 28.551353 37.132479 25.694935
4270   0  1 28.548673 37.129414 28.553121
4271   0  1 28.551353 37.132479 31.411307
4272   0  1 28.553484 37.136614 34.269518
4273   0  1 28.553952 37.137526 37.125690
4274   0  1 28.553426 37.135309 39.978702
4275   0  1 28.553186 37.133888 42.832317
4276   0  1 28.553111 37.133121 45.686598
4277   0  1 28.553095 37.132709 48.541277
4278   0  1 28.553096 37.132486 51.396174
4279   0  1 28.553098 37.132374 54.251183
4280   0  1 28.553111 39.987760  0.000001
4281   0  1 28.553114 39.987806  2.855019
4282   0  1 28.553123 39.987953  5.709984
4283   0  1 28.553145 39.988236  8.564836
4284   0  1 28.553196 39.988711 11.419504
4285   0  1 28.553298 39.989437 14.273948
4286   0  1 28.553435 39.990268 17.128373
4287   0  1 28.553356 39.990160 19.983767
4288   0  1 28.552795 39.988634 22.840235
4289   0  1 28.551856 39.986820 25.696735
4290   0  1 28.551088 39.985910 28.553121
4291   0  1 28.551856 39.986820 31.409506
4292   0  1 28.552795 39.988634 34.266006
4293   0  1 28.553356 39.990160 37.122474
4294   0  1 28.553435 39.990268 39.977868
4295   0  1 28.553298 39.989437 42.832293
4296   0  1 28.553196 39.988711 45.686738
4297   0  1 28.553145 39.988236 48.541406
4298   0  1 28.553123 39.987953 51.396257
4299   0  1 28.553114 39.987806 54.251223
4300   0  1 28.553133 42.843155  0.000001
4301   0  1 28.553139 42.843207  2.854998
4302   0  1 28.553156 42.843370  5.709954
4303   0  1 28.553190 42.843653  8.564835
4304   0  1 28.553243 42.844046 11.419648
4305   0  1 28.553300 42.844435 14.274514
4306   0  1 28.553288 42.844463 17.129759
4307   0  1 28.553111 42.843861 19.985525
4308   0  1 28.552747 42.842907 22.841476
4309   0  1 28.552302 42.842110 25.697318
4310   0  1 28.552036 42.841789 28.553121
4311   0  1 28.552302 42.842110 31.408924
4312   0  1 28.552747 42.842907 34.264765
4313   0  1 28.553111 42.843861 37.120716
4314   0  1 28.553288 42.844463 39.976482
4315   0  1 28.553300 42.844435 42.831727
4316   0  1 28.553243 42.844046 45.686593
4317   0  1 28.553190 42.843653 48.541406
4318   0  1 28.553156 42.843370 51.396288
4319   0  1 28.553139 42.843207 54.251243
4320   0  1 28.553156 45.698502  0.000001
4321   0  1 28.553163 45.698552  2.855011
4322   0  1 28.553183 45.698697  5.710005
4323   0  1 28.553213 45.698911  8.564990
4324   0  1 28.553246 45.699120 11.420027
4325   0  1 28.553253 45.699170 14.275242
4326   0  1 28.553195 45.698923 17.130717
4327   0  1 28.553047 45.698430 19.986356
4328   0  1 28.552826 45.697901 22.841987
4329   0  1 28.552600 45.697523 25.697559
4330   0  1 28.552490 45.697384 28.553121
4331   0  1 28.552600 45.697523 31.408682
4332   0  1 28.552826 45.697901 34.264254
4333   0  1 28.553047 45.698430 37.119885
4334   0  1 28.553195 45.698923 39.975524
4335   0  1 28.553253 45.699170 42.830999
4336   0  1 28.553246 45.699120 45.686215
4337   0  1 28.553213 45.698911 48.541251
4338   0  1 28.553183 45.698697 51.396237
4339   0  1 28.553163 45.698552 54.251231
4340   0  1 28.553173 48.553779  0.000001
4341   0  1 28.553179 48.553817  2.855058
4342   0  1 28.553194 48.553916  5.710129
4343   0  1 28.553215 48.554030  8.565243
4344   0  1 28.553227 48.554078 11.420455
4345   0  1 28.553212 48.553983 14.275805
4346   0  1 28.553155 48.553736 17.131268
4347   0  1 28.553053 48.553418 19.986762
4348   0  1 28.552921 48.553130 22.842232
4349   0  1 28.552802 48.552938 25.697677
4350   0  1 28.552750 48.552870 28.553121
4351   0  1 28.552802 48.552938 31.408564
4352   0  1 28.552921 48.553130 34.264009
4353   0  1 28.553053 48.553418 37.119479
4354   0  1 28.553155 48.553736 39.974974
4355   0  1 28.553212 48.553983 42.830436
4356   0  1 28.553227 48.554078 45.685787
4357   0  1 28.553215 48.554030 48.540999
4358   0  1 28.553194 48.553916 51.396113
4359   0  1 28.553179 48.553817 54.251183
4360   0  1 28.553179 51.408970  0.000001
4361   0  1 28.553183 51.408992  2.855125
4362   0  1 28.553192 51.409042  5.710279
4363   0  1 28.553202 51.409078  8.565494
4364   0  1 28.553204 51.409054 11.420791
4365   0  1 28.553187 51.408946 14.276161
4366   0  1 28.553146 51.408778 17.131568
4367   0  1 28.553083 51.408596 19.986971
4368   0  1 28.553010 51.408444 22.842359
4369   0  1 28.552947 51.408345 25.697739
4370   0  1 28.552922 51.408312 28.553121
4371   0  1 28.552947 51.408345 31.408502
4372   0  1 28.553010 51.408444 34.263882
4373   0  1 28.553083 51.408596 37.119270
4374   0  1 28.553146 51.408778 39.974674
4375   0  1 28.553187 51.408946 42.830080
4376   0  1 28.553204 51.409054 45.685451
4377   0  1 28.553202 51.409078 48.540748
4378   0  1 28.553192 51.409042 51.395963
4379   0  1 28.553183 51.408992 54.251117
4380   0  1 28.553175 54.264083  0.000001
4381   0  1 28.553176 54.264092  2.855182
4382   0  1 28.553181 54.264109  5.710397
4383   0  1 28.553184 54.264112  8.565667
4384   0  1 28.553183 54.264084 11.420993
4385   0  1 28.553173 54.264021 14.276352
4386   0  1 28.553153 54.263939 17.131717
4387   0  1 28.553123 54.263857 19.987074
4388   0  1 28.553090 54.263791 22.842422
4389   0  1 28.553063 54.263749 25.697770
4390   0  1 28.553052 54.263735 28.553121
4391   0  1 28.553063 54.263749 31.408472
4392   0  1 28.553090 54.263791 34.263819
4393   0  1 28.553123 54.263857 37.119167
4394   0  1 28.553153 54.263939 39.974524
4395   0  1 28.553173 54.264021 42.829890
4396   0  1 28.553183 54.264084 45.685249
4397   0  1 28.553184 54.264112 48.540574
4398   0  1 28.553181 54.264109 51.395845
4399   0  1 28.553176 54.264092 54.251060
4400   0  1 31.408588  0.012848  0.000001
4401   0  1 31.408589  0.012847  2.855204
4402   0  1 31.408590  0.012846  5.710441
4403   0  1 31.408591  0.012844  8.565726
4404   0  1 31.408586  0.012844 11.421055
4405   0  1 31.408574  0.012846 14.276406
4406   0  1 31.408551  0.012849 17.131757
4407   0  1 31.408518  0.012854 19.987102
4408   0  1 31.408481  0.012858 22.842441
4409   0  1 31.408451  0.012860 25.697780
4410   0  1 31.408440  0.012862 28.553121
4411   0  1 31.408451  0.012861 31.408462
4412   0  1 31.408481  0.012858 34.263801
4413   0  1 31.408518  0.012854 37.119140
4414   0  1 31.408551  0.012849 39.974484
4415   0  1 31.408574  0.012846 42.829836
4416   0  1 31.408586  0.012844 45.685186
4417   0  1 31.408591  0.012844 48.540515
4418   0  1 31.408590  0.012846 51.395801
4419   0  1 31.408589  0.012847 54.251037
4420   0  1 31.408584  2.867916  0.000001
4421   0  1 31.408584  2.867906  2.855175
4422   0  1 31.408584  2.867886  5.710383
4423   0  1 31.408584  2.867879  8.565646
4424   0  1 31.408584  2.867904 11.420964
4425   0  1 31.408584  2.867965 14.276317
4426   0  1 31.408581  2.868048 17.131680
4427   0  1 31.408574  2.868132 19.987039
4428   0  1 31.408564  2.868201 22.842395
4429   0  1 31.408554  2.868245 25.697755
4430   0  1 31.408549  2.868260 28.553121
4431   0  1 31.408554  2.868245 31.408486
4432   0  1 31.408564  2.868201 34.263846
4433   0  1 31.408574  2.868132 37.119202
4434   0  1 31.408581  2.868048 39.974561
4435   0  1 31.408584  2.867965 42.829924
4436   0  1 31.408584  2.867904 45.685277
4437   0  1 31.408584  2.867879 48.540595
4438   0  1 31.408584  2.867886 51.395858
4439   0  1 31.408584  2.867906 54.251066
4440   0  1 31.408593  5.723030  0.000001
4441   0  1 31.408593  5.723006  2.855113
4442   0  1 31.408594  5.722949  5.710254
4443   0  1 31.408597  5.722904  8.565455
4444   0  1 31.408603  5.722919 11.420737
4445   0  1 31.408615  5.723019 14.276095
4446   0  1 31.408632  5.723183 17.131494
4447   0  1 31.408651  5.723363 19.986899
4448   0  1 31.408666  5.723516 22.842300
4449   0  1 31.408673  5.723615 25.697705
4450   0  1 31.408674  5.723649 28.553121
4451   0  1 31.408673  5.723615 31.408536
4452   0  1 31.408666  5.723516 34.263942
4453   0  1 31.408651  5.723363 37.119342
4454   0  1 31.408632  5.723183 39.974747
4455   0  1 31.408615  5.723019 42.830146
4456   0  1 31.408603  5.722919 45.685504
4457   0  1 31.408597  5.722904 48.540787
4458   0  1 31.408594  5.722949 51.395987
4459   0  1 31.408593  5.723006 54.251128
4460   0  1 31.408615  8.578221  0.000001
4461   0  1 31.408616  8.578180  2.855043
4462   0  1 31.408620  8.578070  5.710096
4463   0  1 31.408629  8.577940  8.565187
4464   0  1 31.408644  8.577871 11.420374
4465   0  1 31.408671  8.577948 14.275701
4466   0  1 31.408712  8.578180 17.131147
4467   0  1 31.408761  8.578489 19.986637
4468   0  1 31.408805  8.578772 22.842123
4469   0  1 31.408829  8.578961 25.697611
4470   0  1 31.408833  8.579027 28.553121
4471   0  1 31.408829  8.578961 31.408630
4472   0  1 31.408805  8.578772 34.264119
4473   0  1 31.408761  8.578489 37.119604
4474   0  1 31.408712  8.578180 39.975095
4475   0  1 31.408671  8.577948 42.830540
4476   0  1 31.408644  8.577871 45.685867
4477   0  1 31.408629  8.577940 48.541054
4478   0  1 31.408620  8.578070 51.396146
4479   0  1 31.408616  8.578180 54.251198
4480   0  1 31.408646 11.433498  0.000001
4481   0  1 31.408650 11.433444  2.854995
4482   0  1 31.408660 11.433286  5.709968
4483   0  1 31.408679 11.433047  8.564924
4484   0  1 31.408709 11.432803 11.419921
4485   0  1 31.408758 11.432711 14.275092
4486   0  1 31.408834 11.432922 17.130529
4487   0  1 31.408931 11.433389 19.986146
4488   0  1 31.409021 11.433899 22.841790
4489   0  1 31.409060 11.434261 25.697432
4490   0  1 31.409053 11.434387 28.553121
4491   0  1 31.409060 11.434261 31.408810
4492   0  1 31.409021 11.433899 34.264451
4493   0  1 31.408931 11.433389 37.120095
4494   0  1 31.408834 11.432922 39.975712
4495   0  1 31.408758 11.432711 42.831149
4496   0  1 31.408709 11.432803 45.686320
4497   0  1 31.408679 11.433047 48.541317
4498   0  1 31.408660 11.433286 51.396273
4499   0  1 31.408650 11.433444 54.251247
4500   0  1 31.408678 14.288847  0.000001
4501   0  1 31.408685 14.288790  2.854983
4502   0  1 31.408706 14.288612  5.709919
4503   0  1 31.408743 14.288299  8.564768
4504   0  1 31.408799 14.287854 11.419527
4505   0  1 31.408884 14.287385 14.274313
4506   0  1 31.409019 14.287270 17.129471
4507   0  1 31.409215 14.287802 19.985171
4508   0  1 31.409409 14.288706 22.841108
4509   0  1 31.409463 14.289449 25.697052
4510   0  1 31.409385 14.289711 28.553121
4511   0  1 31.409463 14.289449 31.409190
4512   0  1 31.409409 14.288706 34.265134
4513   0  1 31.409215 14.287802 37.121070
4514   0  1 31.409019 14.287270 39.976770
4515   0  1 31.408884 14.287385 42.831928
4516   0  1 31.408799 14.287854 45.686714
4517   0  1 31.408743 14.288299 48.541473
4518   0  1 31.408706 14.288612 51.396322
4519   0  1 31.408685 14.288790 54.251258
4520   0  1 31.408700 17.144244  0.000001
4521   0  1 31.408711 17.144194  2.855007
4522   0  1 31.408745 17.144031  5.709955
4523   0  1 31.408807 17.143717  8.564777
4524   0  1 31.408907 17.143179 11.419387
4525   0  1 31.409058 17.142334 14.273716
4526   0  1 31.409293 17.141305 17.127949
4527   0  1 31.409701 17.141210 19.983143
4528   0  1 31.410222 17.142603 22.839497
4529   0  1 31.410364 17.144283 25.696110
4530   0  1 31.409908 17.144924 28.553121
4531   0  1 31.410364 17.144283 31.410132
4532   0  1 31.410222 17.142603 34.266745
4533   0  1 31.409701 17.141210 37.123098
4534   0  1 31.409293 17.141305 39.978293
4535   0  1 31.409058 17.142334 42.832525
4536   0  1 31.408907 17.143179 45.686855
4537   0  1 31.408807 17.143717 48.541464
4538   0  1 31.408745 17.144031 51.396286
4539   0  1 31.408711 17.144194 54.251234
4540   0  1 31.408703 19.999668  0.000001
4541   0  1 31.408717 19.999629  2.855049
4542   0  1 31.408763 19.999504  5.710045
4543   0  1 31.408851 19.999250  8.564918
4544   0  1 31.409003 19.998774 11.419548
4545   0  1 31.409261 19.997869 14.273710
4546   0  1 31.409695 19.996138 17.127032
4547   0  1 31.410456 19.993298 19.979428
4548   0  1 31.412095 19.993693 22.835030
4549   0  1 31.413232 19.997602 25.693090
4550   0  1 31.410649 19.999869 28.553121
4551   0  1 31.413232 19.997602 31.413151
4552   0  1 31.412095 19.993693 34.271212
4553   0  1 31.410456 19.993298 37.126813
4554   0  1 31.409695 19.996138 39.979209
4555   0  1 31.409261 19.997869 42.832531
4556   0  1 31.409003 19.998774 45.686694
4557   0  1 31.408851 19.999250 48.541323
4558   0  1 31.408763 19.999504 51.396196
4559   0  1 31.408717 19.999629 54.251192
4560   0  1 31.408683 22.855105  0.000001
4561   0  1 31.408699 22.855080  2.855092
4562   0  1 31.408748 22.854996  5.710142
4563   0  1 31.408849 22.854825  8.565098
4564   0  1 31.409037 22.854496 11.419861
4565   0  1 31.409397 22.853828 14.274212
4566   0  1 31.410128 22.852318 17.127582
4567   0  1 31.411761 22.848432 19.978322
4568   0  1 31.415808 22.837271 22.821994
4569   0  1 31.426107 22.842266 25.679322
4570   0  1 31.409182 22.856614 28.553121
4571   0  1 31.426107 22.842266 31.426920
4572   0  1 31.415808 22.837271 34.284247
4573   0  1 31.411761 22.848432 37.127920
4574   0  1 31.410128 22.852318 39.978659
4575   0  1 31.409397 22.853828 42.832029
4576   0  1 31.409037 22.854496 45.686381
4577   0  1 31.408849 22.854825 48.541143
4578   0  1 31.408748 22.854996 51.396099
4579   0  1 31.408699 22.855080 54.251150
4580   0  1 31.408646 25.710549  0.000001
4581   0  1 31.408660 25.710535  2.855121
4582   0  1 31.408705 25.710491  5.710211
4583   0  1 31.408796 25.710399  8.565232
4584   0  1 31.408972 25.710223 11.420119
4585   0  1 31.409330 25.709865 14.274741
4586   0  1 31.410174 25.709022 17.128746
4587   0  1 31.412723 25.706473 19.980842
4588   0  1 31.423166 25.696029 22.825428
4589   0  1 31.510213 25.608983 25.587553
4590   0  1 31.360803 25.758393 28.553121
4591   0  1 31.510213 25.608983 31.518689
4592   0  1 31.423166 25.696029 34.280814
4593   0  1 31.412723 25.706473 37.125399
4594   0  1 31.410174 25.709022 39.977496
4595   0  1 31.409330 25.709865 42.831500
4596   0  1 31.408972 25.710223 45.686122
4597   0  1 31.408796 25.710399 48.541010
4598   0  1 31.408705 25.710491 51.396030
4599   0  1 31.408660 25.710535 54.251121
4600   0  1 31.408605 28.565995  0.000001
4601   0  1 31.408615 28.565992  2.855130
4602   0  1 31.408649 28.565982  5.710232
4603   0  1 31.408716 28.565962  8.565272
4604   0  1 31.408841 28.565922 11.420195
4605   0  1 31.409088 28.565842 14.274890
4606   0  1 31.409642 28.565688 17.129092
4607   0  1 31.411215 28.565625 19.981956
4608   0  1 31.417750 28.568538 22.830198
4609   0  1 31.459974 28.601139 25.650603
4610   0  1 31.513691 28.557504 28.553121
4611   0  1 31.459974 28.601139 31.455639
4612   0  1 31.417750 28.568538 34.276044
4613   0  1 31.411215 28.565625 37.124285
4614   0  1 31.409642 28.565688 39.977150
4615   0  1 31.409088 28.565842 42.831351
4616   0  1 31.408841 28.565922 45.686047
4617   0  1 31.408716 28.565962 48.540969
4618   0  1 31.408649 28.565982 51.396009
4619   0  1 31.408615 28.565992 54.251111
4620   0  1 31.408573 31.421439  0.000001
4621   0  1 31.408581 31.421447  2.855118
4622   0  1 31.408605 31.421471  5.710205
4623   0  1 31.408654 31.421520  8.565218
4624   0  1 31.408743 31.421609 11.420088
4625   0  1 31.408912 31.421778 14.274666
4626   0  1 31.409254 31.422120 17.128597
4627   0  1 31.409842 31.422708 19.981190
4628   0  1 31.409018 31.421884 22.833326
4629   0  1 31.398266 31.411132 25.696712
4630   0  1 31.388675 31.401541 28.553121
4631   0  1 31.398266 31.411132 31.409530
4632   0  1 31.409018 31.421884 34.272915
4633   0  1 31.409842 31.422708 37.125051
4634   0  1 31.409254 31.422120 39.977644
4635   0  1 31.408912 31.421778 42.831575
4636   0  1 31.408743 31.421609 45.686153
4637   0  1 31.408654 31.421520 48.541023
4638   0  1 31.408605 31.421471 51.396037
4639   0  1 31.408581 31.421447 54.251123
4640   0  1 31.408560 34.276880  0.000001
4641   0  1 31.408568 34.276899  2.855090
4642   0  1 31.408593 34.276960  5.710140
4643   0  1 31.408644 34.277083  8.565098
4644   0  1 31.408747 34.277314 11.419875
4645   0  1 31.408971 34.277759 14.274302
4646   0  1 31.409540 34.278685 17.128032
4647   0  1 31.411281 34.280758 19.980427
4648   0  1 31.416445 34.285779 22.830981
4649   0  1 31.413137 34.281759 25.692959
4650   0  1 31.408891 34.277748 28.553121
4651   0  1 31.413137 34.281759 31.413282
4652   0  1 31.416445 34.285779 34.275260
4653   0  1 31.411281 34.280758 37.125814
4654   0  1 31.409540 34.278685 39.978210
4655   0  1 31.408971 34.277759 42.831940
4656   0  1 31.408747 34.277314 45.686366
4657   0  1 31.408644 34.277083 48.541144
4658   0  1 31.408593 34.276960 51.396102
4659   0  1 31.408568 34.276899 54.251151
4660   0  1 31.408566 37.132313  0.000001
4661   0  1 31.408576 37.132344  2.855053
4662   0  1 31.408610 37.132445  5.710059
4663   0  1 31.408681 37.132644  8.564958
4664   0  1 31.408824 37.133005 11.419661
4665   0  1 31.409123 37.133650 14.274038
4666   0  1 31.409756 37.134773 17.127954
4667   0  1 31.410922 37.136409 19.981658
4668   0  1 31.410730 37.135522 22.838376
4669   0  1 31.408145 37.132406 25.697011
4670   0  1 31.406718 37.131053 28.553121
4671   0  1 31.408145 37.132406 31.409230
4672   0  1 31.410730 37.135522 34.267866
4673   0  1 31.410922 37.136409 37.124583
4674   0  1 31.409756 37.134773 39.978287
4675   0  1 31.409123 37.133650 42.832203
4676   0  1 31.408824 37.133005 45.686580
4677   0  1 31.408681 37.132644 48.541284
4678   0  1 31.408610 37.132445 51.396183
4679   0  1 31.408576 37.132344 54.251188
4680   0  1 31.408584 39.987731  0.000001
4681   0  1 31.408597 39.987773  2.855021
4682   0  1 31.408641 39.987907  5.709993
4683   0  1 31.408729 39.988160  8.564867
4684   0  1 31.408888 39.988573 11.419592
4685   0  1 31.409155 39.989175 14.274166
4686   0  1 31.409505 39.989815 17.128814
4687   0  1 31.409566 39.989628 19.984398
4688   0  1 31.408874 39.988283 22.841001
4689   0  1 31.407557 39.986750 25.697572
4690   0  1 31.406946 39.986196 28.553121
4691   0  1 31.407557 39.986750 31.408669
4692   0  1 31.408874 39.988283 34.265240
4693   0  1 31.409566 39.989628 37.121844
4694   0  1 31.409505 39.989815 39.977428
4695   0  1 31.409155 39.989175 42.832075
4696   0  1 31.408888 39.988573 45.686649
4697   0  1 31.408729 39.988160 48.541374
4698   0  1 31.408641 39.987907 51.396248
4699   0  1 31.408597 39.987773 54.251221
4700   0  1 31.408603 42.843120  0.000001
4701   0  1 31.408618 42.843168  2.855008
4702   0  1 31.408666 42.843315  5.709980
4703   0  1 31.408753 42.843566  8.564894
4704   0  1 31.408882 42.843902 11.419767
4705   0  1 31.409027 42.844213 14.274723
4706   0  1 31.409076 42.844186 17.130055
4707   0  1 31.408873 42.843611 19.985877
4708   0  1 31.408366 42.842740 22.841873
4709   0  1 31.407727 42.842027 25.697674
4710   0  1 31.407444 42.841779 28.553121
4711   0  1 31.407727 42.842027 31.408567
4712   0  1 31.408366 42.842740 34.264368
4713   0  1 31.408873 42.843611 37.120364
4714   0  1 31.409076 42.844186 39.976186
4715   0  1 31.409027 42.844213 42.831518
4716   0  1 31.408882 42.843902 45.686474
4717   0  1 31.408753 42.843566 48.541347
4718   0  1 31.408666 42.843315 51.396262
4719   0  1 31.408618 42.843168 54.251234
4720   0  1 31.408617 45.698459  0.000001
4721   0  1 31.408631 45.698505  2.855025
4722   0  1 31.408673 45.698634  5.710040
4723   0  1 31.408740 45.698822  8.565056
4724   0  1 31.408814 45.698995 11.420135
4725   0  1 31.408851 45.699014 14.275393
4726   0  1 31.408789 45.698763 17.130900
4727   0  1 31.408587 45.698295 19.986561
4728   0  1 31.408267 45.697801 22.842203
4729   0  1 31.407940 45.697452 25.697724
4730   0  1 31.407802 45.697332 28.553121
4731   0  1 31.407940 45.697452 31.408517
4732   0  1 31.408267 45.697801 34.264039
4733   0  1 31.408587 45.698295 37.119680
4734   0  1 31.408789 45.698763 39.975341
4735   0  1 31.408851 45.699014 42.830848
4736   0  1 31.408814 45.698995 45.686106
4737   0  1 31.408740 45.698822 48.541185
4738   0  1 31.408673 45.698634 51.396201
4739   0  1 31.408631 45.698505 54.251216
4740   0  1 31.408619 48.553727  0.000001
4741   0  1 31.408630 48.553761  2.855074
4742   0  1 31.408661 48.553849  5.710163
4743   0  1 31.408700 48.553947  8.565299
4744   0  1 31.408729 48.553979 11.420534
4745   0  1 31.408716 48.553877 14.275902
4746   0  1 31.408636 48.553637 17.131378
4747   0  1 31.408485 48.553334 19.986883
4748   0  1 31.408288 48.553062 22.842350
4749   0  1 31.408110 48.552882 25.697758
4750   0  1 31.408038 48.552821 28.553121
4751   0  1 31.408110 48.552882 31.408483
4752   0  1 31.408288 48.553062 34.263891
4753   0  1 31.408485 48.553334 37.119358
4754   0  1 31.408636 48.553637 39.974863
4755   0  1 31.408716 48.553877 42.830339
4756   0  1 31.408729 48.553979 45.685708
4757   0  1 31.408700 48.553947 48.540942
4758   0  1 31.408661 48.553849 51.396078
4759   0  1 31.408630 48.553761 54.251167
4760   0  1 31.408612 51.408912  0.000001
4761   0  1 31.408619 51.408931  2.855138
4762   0  1 31.408636 51.408975  5.710305
4763   0  1 31.408654 51.409004  8.565532
4764   0  1 31.408657 51.408975 11.420839
4765   0  1 31.408631 51.408869 14.276217
4766   0  1 31.408566 51.408707 17.131630
4767   0  1 31.408463 51.408534 19.987038
4768   0  1 31.408343 51.408391 22.842421
4769   0  1 31.408243 51.408299 25.697779
4770   0  1 31.408203 51.408268 28.553121
4771   0  1 31.408243 51.408299 31.408462
4772   0  1 31.408343 51.408391 34.263820
4773   0  1 31.408463 51.408534 37.119203
4774   0  1 31.408566 51.408707 39.974612
4775   0  1 31.408631 51.408869 42.830024
4776   0  1 31.408657 51.408975 45.685402
4777   0  1 31.408654 51.409004 48.540709
4778   0  1 31.408636 51.408975 51.395937
4779   0  1 31.408619 51.408931 54.251104
4780   0  1 31.408599 54.264022  0.000001
4781   0  1 31.408602 54.264029  2.855189
4782   0  1 31.408610 54.264043  5.710410
4783   0  1 31.408615 54.264045  8.565685
4784   0  1 31.408610 54.264016 11.421014
4785   0  1 31.408588 54.263956 14.276375
4786   0  1 31.408544 54.263879 17.131743
4787   0  1 31.408480 54.263803 19.987102
4788   0  1 31.408409 54.263743 22.842448
4789   0  1 31.408352 54.263705 25.697787
4790   0  1 31.408329 54.263692 28.553121
4791   0  1 31.408352 54.263705 31.408455
4792   0  1 31.408409 54.263743 34.263793
4793   0  1 31.408480 54.263803 37.119139
4794   0  1 31.408544 54.263879 39.974498
4795   0  1 31.408588 54.263956 42.829866
4796   0  1 31.408610 54.264016 45.685228
4797   0  1 31.408615 54.264045 48.540556
4798   0  1 31.408610 54.264043 51.395831
4799   0  1 31.408602 54.264029 54.251053
4800   0  1 34.264005  0.012789  0.000001
4801   0  1 34.264008  0.012787  2.855205
4802   0  1 34.264014  0.012784  5.710440
4803   0  1 34.264019  0.012780  8.565721
4804   0  1 34.264014  0.012780 11.421043
4805   0  1 34.263991  0.012782 14.276388
4806   0  1 34.263945  0.012788 17.131741
4807   0  1 34.263878  0.012795 19.987093
4808   0  1 34.263806  0.012803 22.842440
4809   0  1 34.263750  0.012808 25.697782
4810   0  1 34.263729  0.012810 28.553121
4811   0  1 34.263750  0.012808 31.408459
4812   0  1 34.263806  0.012803 34.263801
4813   0  1 34.263878  0.012795 37.119149
4814   0  1 34.263945  0.012788 39.974500
4815   0  1 34.263991  0.012782 42.829853
4816   0  1 34.264014  0.012780 45.685199
4817   0  1 34.264019  0.012780 48.540520
4818   0  1 34.264014  0.012784 51.395801
4819   0  1 34.264008  0.012787 54.251036
4820   0  1 34.264014  2.867855  0.000001
4821   0  1 34.264017  2.867844  2.855170
4822   0  1 34.264025  2.867820  5.710371
4823   0  1 34.264034  2.867808  8.565623
4824   0  1 34.264038  2.867826 11.420929
4825   0  1 34.264029  2.867882 14.276274
4826   0  1 34.264002  2.867960 17.131637
4827   0  1 34.263956  2.868042 19.987005
4828   0  1 34.263902  2.868110 22.842376
4829   0  1 34.263856  2.868154 25.697748
4830   0  1 34.263838  2.868169 28.553121
4831   0  1 34.263856  2.868154 31.408493
4832   0  1 34.263902  2.868110 34.263865
4833   0  1 34.263956  2.868042 37.119236
4834   0  1 34.264002  2.867960 39.974605
4835   0  1 34.264029  2.867882 42.829968
4836   0  1 34.264038  2.867826 45.685312
4837   0  1 34.264034  2.867808 48.540618
4838   0  1 34.264025  2.867820 51.395871
4839   0  1 34.264017  2.867844 54.251071
4840   0  1 34.264042  5.722967  0.000001
4841   0  1 34.264048  5.722941  2.855103
4842   0  1 34.264064  5.722878  5.710231
4843   0  1 34.264086  5.722821  8.565416
4844   0  1 34.264107  5.722822 11.420680
4845   0  1 34.264119  5.722906 14.276024
4846   0  1 34.264113  5.723054 17.131420
4847   0  1 34.264083  5.723222 19.986836
4848   0  1 34.264036  5.723367 22.842260
4849   0  1 34.263989  5.723461 25.697689
4850   0  1 34.263969  5.723493 28.553121
4851   0  1 34.263989  5.723461 31.408552
4852   0  1 34.264036  5.723367 34.263981
4853   0  1 34.264083  5.723222 37.119405
4854   0  1 34.264113  5.723054 39.974822
4855   0  1 34.264119  5.722906 42.830217
4856   0  1 34.264107  5.722822 45.685561
4857   0  1 34.264086  5.722821 48.540826
4858   0  1 34.264064  5.722878 51.396010
4859   0  1 34.264048  5.722941 54.251139
4860   0  1 34.264086  8.578153  0.000001
4861   0  1 34.264096  8.578109  2.855029
4862   0  1 34.264126  8.577990  5.710064
4863   0  1 34.264171  8.577844  8.565135
4864   0  1 34.264224  8.577752 11.420297
4865   0  1 34.264273  8.577797 14.275600
4866   0  1 34.264301  8.577993 17.131033
4867   0  1 34.264294  8.578269 19.986534
4868   0  1 34.264245  8.578526 22.842058
4869   0  1 34.264176  8.578698 25.697590
4870   0  1 34.264144  8.578757 28.553121
4871   0  1 34.264176  8.578698 31.408652
4872   0  1 34.264245  8.578526 34.264183
4873   0  1 34.264294  8.578269 37.119707
4874   0  1 34.264301  8.577993 39.975209
4875   0  1 34.264273  8.577797 42.830642
4876   0  1 34.264224  8.577752 45.685945
4877   0  1 34.264171  8.577844 48.541107
4878   0  1 34.264126  8.577990 51.396177
4879   0  1 34.264096  8.578109 54.251213
4880   0  1 34.264136 11.433423  0.000001
4881   0  1 34.264152 11.433366  2.854977
4882   0  1 34.264199 11.433196  5.709930
4883   0  1 34.264278 11.432937  8.564860
4884   0  1 34.264387 11.432659 11.419824
4885   0  1 34.264511 11.432518 14.274957
4886   0  1 34.264618 11.432661 17.130362
4887   0  1 34.264666 11.433049 19.985983
4888   0  1 34.264611 11.433488 22.841689
4889   0  1 34.264473 11.433797 25.697418
4890   0  1 34.264404 11.433903 28.553121
4891   0  1 34.264473 11.433797 31.408824
4892   0  1 34.264611 11.433488 34.264552
4893   0  1 34.264666 11.433049 37.120259
4894   0  1 34.264618 11.432661 39.975879
4895   0  1 34.264511 11.432518 42.831285
4896   0  1 34.264387 11.432659 45.686418
4897   0  1 34.264278 11.432937 48.541381
4898   0  1 34.264199 11.433196 51.396311
4899   0  1 34.264152 11.433366 54.251264
4900   0  1 34.264177 14.288767  0.000001
4901   0  1 34.264198 14.288706  2.854963
4902   0  1 34.264265 14.288516  5.709875
4903   0  1 34.264387 14.288178  8.564693
4904   0  1 34.264576 14.287689 11.419409
4905   0  1 34.264840 14.287149 14.274137
4906   0  1 34.265141 14.286917 17.129232
4907   0  1 34.265373 14.287285 19.984906
4908   0  1 34.265354 14.288009 22.840952
4909   0  1 34.265018 14.288598 25.697115
4910   0  1 34.264845 14.288795 28.553121
4911   0  1 34.265018 14.288598 31.409126
4912   0  1 34.265354 14.288009 34.265290
4913   0  1 34.265373 14.287285 37.121335
4914   0  1 34.265141 14.286917 39.977010
4915   0  1 34.264840 14.287149 42.832104
4916   0  1 34.264576 14.287689 45.686833
4917   0  1 34.264387 14.288178 48.541549
4918   0  1 34.264265 14.288516 51.396366
4919   0  1 34.264198 14.288706 54.251278
4920   0  1 34.264195 17.144166  0.000001
4921   0  1 34.264221 17.144112  2.854984
4922   0  1 34.264305 17.143935  5.709906
4923   0  1 34.264468 17.143593  8.564689
4924   0  1 34.264750 17.143002 11.419242
4925   0  1 34.265216 17.142058 14.273485
4926   0  1 34.265931 17.140847 17.127595
4927   0  1 34.266768 17.140436 19.982685
4928   0  1 34.267126 17.141402 22.839231
4929   0  1 34.266158 17.142711 25.696604
4930   0  1 34.265712 17.143102 28.553121
4931   0  1 34.266158 17.142711 31.409638
4932   0  1 34.267126 17.141402 34.267010
4933   0  1 34.266768 17.140436 37.123556
4934   0  1 34.265931 17.140847 39.978647
4935   0  1 34.265216 17.142058 42.832757
4936   0  1 34.264750 17.143002 45.687000
4937   0  1 34.264468 17.143593 48.541552
4938   0  1 34.264305 17.143935 51.396336
4939   0  1 34.264221 17.144112 54.251257
4940   0  1 34.264182 19.999600  0.000001
4941   0  1 34.264211 19.999558  2.855024
4942   0  1 34.264305 19.999419  5.709989
4943   0  1 34.264495 19.999137  8.564815
4944   0  1 34.264850 19.998604 11.419368
4945   0  1 34.265521 19.997582 14.273395
4946   0  1 34.266834 19.995589 17.126473
4947   0  1 34.269318 19.992154 19.978506
4948   0  1 34.272041 19.991519 22.834318
4949   0  1 34.268701 19.995307 25.696032
4950   0  1 34.267633 19.996117 28.553121
4951   0  1 34.268701 19.995307 31.410209
4952   0  1 34.272041 19.991519 34.271923
4953   0  1 34.269318 19.992154 37.127735
4954   0  1 34.266834 19.995589 39.979768
4955   0  1 34.265521 19.997582 42.832847
4956   0  1 34.264850 19.998604 45.686874
4957   0  1 34.264495 19.999137 48.541426
4958   0  1 34.264305 19.999419 51.396252
4959   0  1 34.264211 19.999558 54.251217
4960   0  1 34.264143 22.855053  0.000001
4961   0  1 34.264171 22.855024  2.855064
4962   0  1 34.264265 22.854931  5.710080
4963   0  1 34.264457 22.854738  8.564979
4964   0  1 34.264829 22.854366 11.419640
4965   0  1 34.265590 22.853605 14.273788
4966   0  1 34.267338 22.851857 17.126718
4967   0  1 34.271994 22.847202 19.976472
4968   0  1 34.286507 22.832689 22.818288
4969   0  1 34.274153 22.845042 25.696823
4970   0  1 34.272633 22.846562 28.553121
4971   0  1 34.274153 22.845042 31.409418
4972   0  1 34.286507 22.832689 34.287953
4973   0  1 34.271994 22.847202 37.129769
4974   0  1 34.267338 22.851857 39.979524
4975   0  1 34.265590 22.853605 42.832453
4976   0  1 34.264829 22.854366 45.686602
4977   0  1 34.264457 22.854738 48.541262
4978   0  1 34.264265 22.854931 51.396162
4979   0  1 34.264171 22.855024 54.251177
4980   0  1 34.264090 25.710512  0.000001
4981   0  1 34.264116 25.710497  2.855092
4982   0  1 34.264199 25.710447  5.710142
4983   0  1 34.264370 25.710346  8.565098
4984   0  1 34.264699 25.710158 11.419861
4985   0  1 34.265367 25.709798 14.274212
4986   0  1 34.266877 25.709068 17.127582
4987   0  1 34.270764 25.707434 19.978322
4988   0  1 34.281924 25.703388 22.821994
4989   0  1 34.276929 25.693088 25.679322
4990   0  1 34.262581 25.710013 28.553121
4991   0  1 34.276929 25.693088 31.426920
4992   0  1 34.281924 25.703388 34.284247
4993   0  1 34.270764 25.707434 37.127920
4994   0  1 34.266877 25.709068 39.978659
4995   0  1 34.265367 25.709798 42.832029
4996   0  1 34.264699 25.710158 45.686381
4997   0  1 34.264370 25.710346 48.541143
4998   0  1 34.264199 25.710447 51.396099
4999   0  1 34.264116 25.710497 54.251150
5000   0  1 34.264043 28.565971  0.000001
5001   0  1 34.264064 28.565967  2.855100
5002   0  1 34.264135 28.565957  5.710162
5003   0  1 34.264277 28.565937  8.565136
5004   0  1 34.264547 28.565908 11.419936
5005   0  1 34.265084 28.565883 14.274376
5006   0  1 34.266256 28.565953 17.128017
5007   0  1 34.269123 28.566591 19.979727
5008   0  1 34.277219 28.570007 22.826723
5009   0  1 34.271218 28.565473 25.687585
5010   0  1 34.262655 28.554563 28.553121
5011   0  1 34.271218 28.565473 31.418657
5012   0  1 34.277219 28.570007 34.279519
5013   0  1 34.269123 28.566591 37.126514
5014   0  1 34.266256 28.565953 39.978225
5015   0  1 34.265084 28.565883 42.831865
5016   0  1 34.264547 28.565908 45.686306
5017   0  1 34.264277 28.565937 48.541105
5018   0  1 34.264135 28.565957 51.396079
5019   0  1 34.264064 28.565967 54.251141
5020   0  1 34.264014 31.421426  0.000001
5021   0  1 34.264033 31.421434  2.855090
5022   0  1 34.264094 31.421459  5.710140
5023   0  1 34.264217 31.421510  8.565098
5024   0  1 34.264448 31.421613 11.419875
5025   0  1 34.264893 31.421837 14.274302
5026   0  1 34.265819 31.422406 17.128032
5027   0  1 34.267892 31.424147 19.980427
5028   0  1 34.272913 31.429311 22.830981
5029   0  1 34.268893 31.426003 25.692959
5030   0  1 34.264882 31.421757 28.553121
5031   0  1 34.268893 31.426003 31.413282
5032   0  1 34.272913 31.429311 34.275260
5033   0  1 34.267892 31.424147 37.125814
5034   0  1 34.265819 31.422406 39.978210
5035   0  1 34.264893 31.421837 42.831940
5036   0  1 34.264448 31.421613 45.686366
5037   0  1 34.264217 31.421510 48.541144
5038   0  1 34.264094 31.421459 51.396102
5039   0  1 34.264033 31.421434 54.251151
5040   0  1 34.264010 34.276876  0.000001
5041   0  1 34.264029 34.276895  2.855067
5042   0  1 34.264089 34.276955  5.710089
5043   0  1 34.264209 34.277074  8.565012
5044   0  1 34.264428 34.277294 11.419748
5045   0  1 34.264826 34.277692 14.274164
5046   0  1 34.265493 34.278359 17.128143
5047   0  1 34.266163 34.279029 19.982179
5048   0  1 34.265203 34.278069 22.838790
5049   0  1 34.262185 34.275051 25.697165
5050   0  1 34.260804 34.273670 28.553121
5051   0  1 34.262185 34.275051 31.409077
5052   0  1 34.265203 34.278069 34.267451
5053   0  1 34.266163 34.279029 37.124062
5054   0  1 34.265493 34.278359 39.978099
5055   0  1 34.264826 34.277692 42.832077
5056   0  1 34.264428 34.277294 45.686493
5057   0  1 34.264209 34.277074 48.541230
5058   0  1 34.264089 34.276955 51.396152
5059   0  1 34.264029 34.276895 54.251175
5060   0  1 34.264027 37.132316  0.000001
5061   0  1 34.264047 37.132345  2.855038
5062   0  1 34.264112 37.132440  5.710031
5063   0  1 34.264241 37.132624  8.564923
5064   0  1 34.264473 37.132942 11.419649
5065   0  1 34.264883 37.133466 14.274146
5066   0  1 34.265581 37.134246 17.128459
5067   0  1 34.266475 37.135060 19.983136
5068   0  1 34.265648 37.133968 22.840257
5069   0  1 34.264029 37.132242 25.697484
5070   0  1 34.263415 37.131644 28.553121
5071   0  1 34.264029 37.132242 31.408757
5072   0  1 34.265648 37.133968 34.265984
5073   0  1 34.266475 37.135060 37.123105
5074   0  1 34.265581 37.134246 39.977782
5075   0  1 34.264883 37.133466 42.832096
5076   0  1 34.264473 37.132942 45.686592
5077   0  1 34.264241 37.132624 48.541318
5078   0  1 34.264112 37.132440 51.396211
5079   0  1 34.264047 37.132345 54.251203
5080   0  1 34.264051 39.987734  0.000001
5081   0  1 34.264073 39.987773  2.855017
5082   0  1 34.264143 39.987895  5.709992
5083   0  1 34.264277 39.988119  8.564887
5084   0  1 34.264499 39.988467 11.419678
5085   0  1 34.264832 39.988933 14.274407
5086   0  1 34.265214 39.989361 17.129320
5087   0  1 34.265192 39.989110 19.985102
5088   0  1 34.264404 39.988080 22.841645
5089   0  1 34.263520 39.987173 25.697740
5090   0  1 34.263182 39.986871 28.553121
5091   0  1 34.263520 39.987173 31.408502
5092   0  1 34.264404 39.988080 34.264596
5093   0  1 34.265192 39.989110 37.121139
5094   0  1 34.265214 39.989361 39.976921
5095   0  1 34.264832 39.988933 42.831835
5096   0  1 34.264499 39.988467 45.686564
5097   0  1 34.264277 39.988119 48.541354
5098   0  1 34.264143 39.987895 51.396249
5099   0  1 34.264073 39.987773 54.251224
5100   0  1 34.264067 42.843113  0.000001
5101   0  1 34.264089 42.843157  2.855014
5102   0  1 34.264158 42.843288  5.710002
5103   0  1 34.264278 42.843504  8.564951
5104   0  1 34.264446 42.843779 11.419893
5105   0  1 34.264621 42.844007 14.274949
5106   0  1 34.264664 42.843942 17.130367
5107   0  1 34.264403 42.843445 19.986216
5108   0  1 34.263849 42.842754 22.842171
5109   0  1 34.263339 42.842259 25.697804
5110   0  1 34.263142 42.842095 28.553121
5111   0  1 34.263339 42.842259 31.408438
5112   0  1 34.263849 42.842754 34.264070
5113   0  1 34.264403 42.843445 37.120026
5114   0  1 34.264664 42.843942 39.975874
5115   0  1 34.264621 42.844007 42.831292
5116   0  1 34.264446 42.843779 45.686349
5117   0  1 34.264278 42.843504 48.541290
5118   0  1 34.264158 42.843288 51.396239
5119   0  1 34.264089 42.843157 54.251227
5120   0  1 34.264069 45.698437  0.000001
5121   0  1 34.264088 45.698477  2.855040
5122   0  1 34.264146 45.698591  5.710075
5123   0  1 34.264234 45.698750  8.565124
5124   0  1 34.264327 45.698886 11.420246
5125   0  1 34.264368 45.698881 14.275545
5126   0  1 34.264282 45.698647 17.131075
5127   0  1 34.264032 45.698240 19.986740
5128   0  1 34.263677 45.697826 22.842363
5129   0  1 34.263375 45.697552 25.697812
5130   0  1 34.263260 45.697460 28.553121
5131   0  1 34.263375 45.697552 31.408429
5132   0  1 34.263677 45.697826 34.263878
5133   0  1 34.264032 45.698240 37.119501
5134   0  1 34.264282 45.698647 39.975167
5135   0  1 34.264368 45.698881 42.830696
5136   0  1 34.264327 45.698886 45.685995
5137   0  1 34.264234 45.698750 48.541117
5138   0  1 34.264146 45.698591 51.396166
5139   0  1 34.264088 45.698477 54.251201
5140   0  1 34.264056 48.553688  0.000001
5141   0  1 34.264070 48.553718  2.855091
5142   0  1 34.264110 48.553795  5.710199
5143   0  1 34.264161 48.553876  8.565356
5144   0  1 34.264196 48.553896 11.420609
5145   0  1 34.264175 48.553796 14.275990
5146   0  1 34.264068 48.553577 17.131473
5147   0  1 34.263878 48.553307 19.986981
5148   0  1 34.263651 48.553069 22.842440
5149   0  1 34.263467 48.552917 25.697812
5150   0  1 34.263398 48.552867 28.553121
5151   0  1 34.263467 48.552917 31.408429
5152   0  1 34.263651 48.553069 34.263801
5153   0  1 34.263878 48.553307 37.119260
5154   0  1 34.264068 48.553577 39.974768
5155   0  1 34.264175 48.553796 42.830251
5156   0  1 34.264196 48.553896 45.685632
5157   0  1 34.264161 48.553876 48.540885
5158   0  1 34.264110 48.553795 51.396043
5159   0  1 34.264070 48.553718 54.251150
5160   0  1 34.264034 51.408861  0.000001
5161   0  1 34.264043 51.408878  2.855151
5162   0  1 34.264066 51.408916  5.710331
5163   0  1 34.264089 51.408939  8.565568
5164   0  1 34.264093 51.408909 11.420880
5165   0  1 34.264055 51.408811 14.276260
5166   0  1 34.263965 51.408664 17.131676
5167   0  1 34.263829 51.408508 19.987088
5168   0  1 34.263680 51.408380 22.842470
5169   0  1 34.263564 51.408300 25.697809
5170   0  1 34.263520 51.408273 28.553121
5171   0  1 34.263564 51.408300 31.408432
5172   0  1 34.263680 51.408380 34.263772
5173   0  1 34.263829 51.408508 37.119153
5174   0  1 34.263965 51.408664 39.974566
5175   0  1 34.264055 51.408811 42.829981
5176   0  1 34.264093 51.408909 45.685361
5177   0  1 34.264089 51.408939 48.540673
5178   0  1 34.264066 51.408916 51.395910
5179   0  1 34.264043 51.408878 54.251090
5180   0  1 34.264014 54.263965  0.000001
5181   0  1 34.264019 54.263971  2.855197
5182   0  1 34.264030 54.263983  5.710423
5183   0  1 34.264038 54.263983  8.565700
5184   0  1 34.264032 54.263956 11.421026
5185   0  1 34.263998 54.263902 14.276385
5186   0  1 34.263931 54.263833 17.131755
5187   0  1 34.263836 54.263766 19.987119
5188   0  1 34.263734 54.263713 22.842469
5189   0  1 34.263656 54.263680 25.697801
5190   0  1 34.263627 54.263670 28.553121
5191   0  1 34.263656 54.263680 31.408441
5192   0  1 34.263734 54.263713 34.263772
5193   0  1 34.263836 54.263766 37.119122
5194   0  1 34.263931 54.263833 39.974486
5195   0  1 34.263998 54.263902 42.829857
5196   0  1 34.264032 54.263956 45.685216
5197   0  1 34.264038 54.263983 48.540542
5198   0  1 34.264030 54.263983 51.395818
5199   0  1 34.264019 54.263971 54.251045
5200   0  1 37.119411  0.012737  0.000001
5201   0  1 37.119418  0.012734  2.855206
5202   0  1 37.119435  0.012728  5.710438
5203   0  1 37.119451  0.012722  8.565708
5204   0  1 37.119452  0.012720 11.421017
5205   0  1 37.119420  0.012722 14.276356
5206   0  1 37.119348  0.012728 17.131716
5207   0  1 37.119247  0.012737 19.987083
5208   0  1 37.119145  0.012747 22.842443
5209   0  1 37.119071  0.012754 25.697787
5210   0  1 37.119044  0.012757 28.553121
5211   0  1 37.119071  0.012754 31.408454
5212   0  1 37.119145  0.012747 34.263799
5213   0  1 37.119247  0.012737 37.119158
5214   0  1 37.119348  0.012728 39.974525
5215   0  1 37.119420  0.012722 42.829885
5216   0  1 37.119452  0.012720 45.685224
5217   0  1 37.119451  0.012722 48.540533
5218   0  1 37.119435  0.012728 51.395803
5219   0  1 37.119418  0.012734 54.251035
5220   0  1 37.119438  2.867801  0.000001
5221   0  1 37.119446  2.867788  2.855165
5222   0  1 37.119469  2.867759  5.710357
5223   0  1 37.119496  2.867739  8.565595
5224   0  1 37.119510  2.867749 11.420885
5225   0  1 37.119495  2.867794 14.276222
5226   0  1 37.119440  2.867863 17.131592
5227   0  1 37.119353  2.867938 19.986981
5228   0  1 37.119259  2.868002 22.842370
5229   0  1 37.119188  2.868044 25.697749
5230   0  1 37.119162  2.868058 28.553121
5231   0  1 37.119188  2.868044 31.408492
5232   0  1 37.119259  2.868002 34.263871
5233   0  1 37.119353  2.867938 37.119260
5234   0  1 37.119440  2.867863 39.974649
5235   0  1 37.119495  2.867794 42.830020
5236   0  1 37.119510  2.867749 45.685356
5237   0  1 37.119496  2.867739 48.540646
5238   0  1 37.119469  2.867759 51.395884
5239   0  1 37.119446  2.867788 54.251076
5240   0  1 37.119495  5.722906  0.000001
5241   0  1 37.119508  5.722877  2.855093
5242   0  1 37.119544  5.722807  5.710209
5243   0  1 37.119593  5.722740  8.565376
5244   0  1 37.119636  5.722724 11.420622
5245   0  1 37.119648  5.722785 14.275954
5246   0  1 37.119614  5.722909 17.131357
5247   0  1 37.119535  5.723056 19.986798
5248   0  1 37.119436  5.723184 22.842249
5249   0  1 37.119355  5.723268 25.697690
5250   0  1 37.119324  5.723296 28.553121
5251   0  1 37.119355  5.723268 31.408551
5252   0  1 37.119436  5.723184 34.263992
5253   0  1 37.119535  5.723056 37.119443
5254   0  1 37.119614  5.722909 39.974884
5255   0  1 37.119648  5.722785 42.830287
5256   0  1 37.119636  5.722724 45.685620
5257   0  1 37.119593  5.722740 48.540865
5258   0  1 37.119544  5.722807 51.396033
5259   0  1 37.119508  5.722877 54.251148
5260   0  1 37.119570  8.578080  0.000001
5261   0  1 37.119591  8.578033  2.855015
5262   0  1 37.119649  8.577907  5.710034
5263   0  1 37.119737  8.577748  8.565086
5264   0  1 37.119832  8.577634 11.420228
5265   0  1 37.119902  8.577644 14.275517
5266   0  1 37.119911  8.577793 17.130954
5267   0  1 37.119845  8.578017 19.986487
5268   0  1 37.119722  8.578230 22.842051
5269   0  1 37.119610  8.578372 25.697597
5270   0  1 37.119566  8.578421 28.553121
5271   0  1 37.119610  8.578372 31.408644
5272   0  1 37.119722  8.578230 34.264190
5273   0  1 37.119845  8.578017 37.119755
5274   0  1 37.119911  8.577793 39.975287
5275   0  1 37.119902  8.577644 42.830725
5276   0  1 37.119832  8.577634 45.686013
5277   0  1 37.119737  8.577748 48.541155
5278   0  1 37.119649  8.577907 51.396207
5279   0  1 37.119591  8.578033 54.251226
5280   0  1 37.119645 11.433336  0.000001
5281   0  1 37.119673 11.433276  2.854959
5282   0  1 37.119759 11.433100  5.709893
5283   0  1 37.119903 11.432830  8.564803
5284   0  1 37.120091 11.432531 11.419750
5285   0  1 37.120285 11.432346 14.274869
5286   0  1 37.120410 11.432410 17.130277
5287   0  1 37.120393 11.432694 19.985940
5288   0  1 37.120220 11.433028 22.841719
5289   0  1 37.120040 11.433257 25.697451
5290   0  1 37.119966 11.433334 28.553121
5291   0  1 37.120040 11.433257 31.408790
5292   0  1 37.120220 11.433028 34.264523
5293   0  1 37.120393 11.432694 37.120301
5294   0  1 37.120410 11.432410 39.975964
5295   0  1 37.120285 11.432346 42.831372
5296   0  1 37.120091 11.432531 45.686492
5297   0  1 37.119903 11.432830 48.541438
5298   0  1 37.119759 11.433100 51.396349
5299   0  1 37.119673 11.433276 54.251283
5300   0  1 37.119694 14.288673  0.000001
5301   0  1 37.119730 14.288610  2.854939
5302   0  1 37.119844 14.288413  5.709827
5303   0  1 37.120051 14.288065  8.564622
5304   0  1 37.120371 14.287559 11.419321
5305   0  1 37.120799 14.286983 14.274049
5306   0  1 37.121227 14.286659 17.129163
5307   0  1 37.121411 14.286852 19.984924
5308   0  1 37.121136 14.287368 22.841144
5309   0  1 37.120816 14.287738 25.697225
5310   0  1 37.120688 14.287860 28.553121
5311   0  1 37.120816 14.287738 31.409017
5312   0  1 37.121136 14.287368 34.265097
5313   0  1 37.121411 14.286852 37.121317
5314   0  1 37.121227 14.286659 39.977078
5315   0  1 37.120799 14.286983 42.832193
5316   0  1 37.120371 14.287559 45.686920
5317   0  1 37.120051 14.288065 48.541620
5318   0  1 37.119844 14.288413 51.396414
5319   0  1 37.119730 14.288610 54.251302
5320   0  1 37.119698 17.144080  0.000001
5321   0  1 37.119740 17.144024  2.854955
5322   0  1 37.119875 17.143841  5.709843
5323   0  1 37.120137 17.143487  8.564592
5324   0  1 37.120594 17.142882 11.419115
5325   0  1 37.121343 17.141922 14.273360
5326   0  1 37.122425 17.140677 17.127562
5327   0  1 37.123353 17.140121 19.982922
5328   0  1 37.122839 17.140927 22.840127
5329   0  1 37.122242 17.141551 25.696890
5330   0  1 37.122024 17.141744 28.553121
5331   0  1 37.122242 17.141551 31.409352
5332   0  1 37.122839 17.140927 34.266115
5333   0  1 37.123353 17.140121 37.123319
5334   0  1 37.122425 17.140677 39.978679
5335   0  1 37.121343 17.141922 42.832881
5336   0  1 37.120594 17.142882 45.687126
5337   0  1 37.120137 17.143487 48.541649
5338   0  1 37.119875 17.143841 51.396398
5339   0  1 37.119740 17.144024 54.251287
5340   0  1 37.119660 19.999536  0.000001
5341   0  1 37.119703 19.999492  2.854989
5342   0  1 37.119847 19.999348  5.709911
5343   0  1 37.120137 19.999058  8.564684
5344   0  1 37.120675 19.998520 11.419172
5345   0  1 37.121682 19.997513 14.273158
5346   0  1 37.123569 19.995626 17.126380
5347   0  1 37.126635 19.992560 19.979275
5348   0  1 37.125641 19.993555 22.838275
5349   0  1 37.124431 19.994764 25.696439
5350   0  1 37.124074 19.995122 28.553121
5351   0  1 37.124431 19.994764 31.409802
5352   0  1 37.125641 19.993555 34.267966
5353   0  1 37.126635 19.992560 37.126966
5354   0  1 37.123569 19.995626 39.979861
5355   0  1 37.121682 19.997513 42.833083
5356   0  1 37.120675 19.998520 45.687069
5357   0  1 37.120137 19.999058 48.541558
5358   0  1 37.119847 19.999348 51.396330
5359   0  1 37.119703 19.999492 54.251253
5360   0  1 37.119596 22.855013  0.000001
5361   0  1 37.119638 22.854984  2.855024
5362   0  1 37.119777 22.854890  5.709989
5363   0  1 37.120059 22.854700  8.564815
5364   0  1 37.120591 22.854346 11.419368
5365   0  1 37.121614 22.853675 14.273395
5366   0  1 37.123607 22.852361 17.126473
5367   0  1 37.127042 22.849877 19.978506
5368   0  1 37.127676 22.847155 22.834318
5369   0  1 37.123888 22.850494 25.696032
5370   0  1 37.123078 22.851562 28.553121
5371   0  1 37.123888 22.850494 31.410209
5372   0  1 37.127676 22.847155 34.271923
5373   0  1 37.127042 22.849877 37.127735
5374   0  1 37.123607 22.852361 39.979768
5375   0  1 37.121614 22.853675 42.832847
5376   0  1 37.120591 22.854346 45.686874
5377   0  1 37.120059 22.854700 48.541426
5378   0  1 37.119777 22.854890 51.396252
5379   0  1 37.119638 22.854984 54.251217
5380   0  1 37.119528 25.710492  0.000001
5381   0  1 37.119566 25.710478  2.855049
5382   0  1 37.119692 25.710433  5.710045
5383   0  1 37.119945 25.710345  8.564918
5384   0  1 37.120421 25.710192 11.419548
5385   0  1 37.121326 25.709934 14.273710
5386   0  1 37.123058 25.709501 17.127032
5387   0  1 37.125898 25.708739 19.979428
5388   0  1 37.125502 25.707100 22.835030
5389   0  1 37.121593 25.705964 25.693090
5390   0  1 37.119327 25.708546 28.553121
5391   0  1 37.121593 25.705964 31.413151
5392   0  1 37.125502 25.707100 34.271212
5393   0  1 37.125898 25.708739 37.126813
5394   0  1 37.123058 25.709501 39.979209
5395   0  1 37.121326 25.709934 42.832531
5396   0  1 37.120421 25.710192 45.686694
5397   0  1 37.119945 25.710345 48.541323
5398   0  1 37.119692 25.710433 51.396196
5399   0  1 37.119566 25.710478 54.251192
5400   0  1 37.119474 28.565965  0.000001
5401   0  1 37.119508 28.565964  2.855058
5402   0  1 37.119620 28.565962  5.710068
5403   0  1 37.119843 28.565961  8.564964
5404   0  1 37.120255 28.565977 11.419643
5405   0  1 37.121022 28.566052 14.273924
5406   0  1 37.122443 28.566292 17.127539
5407   0  1 37.124660 28.566818 19.980551
5408   0  1 37.123748 28.566350 22.836723
5409   0  1 37.119613 28.564219 25.694935
5410   0  1 37.116548 28.561539 28.553121
5411   0  1 37.119613 28.564219 31.411307
5412   0  1 37.123748 28.566350 34.269518
5413   0  1 37.124660 28.566818 37.125690
5414   0  1 37.122443 28.566292 39.978702
5415   0  1 37.121022 28.566052 42.832317
5416   0  1 37.120255 28.565977 45.686598
5417   0  1 37.119843 28.565961 48.541277
5418   0  1 37.119620 28.565962 51.396174
5419   0  1 37.119508 28.565964 54.251183
5420   0  1 37.119447 31.421432  0.000001
5421   0  1 37.119478 31.421442  2.855053
5422   0  1 37.119579 31.421476  5.710059
5423   0  1 37.119778 31.421547  8.564958
5424   0  1 37.120139 31.421690 11.419661
5425   0  1 37.120784 31.421989 14.274038
5426   0  1 37.121907 31.422622 17.127954
5427   0  1 37.123543 31.423788 19.981658
5428   0  1 37.122656 31.423596 22.838376
5429   0  1 37.119540 31.421011 25.697011
5430   0  1 37.118187 31.419584 28.553121
5431   0  1 37.119540 31.421011 31.409230
5432   0  1 37.122656 31.423596 34.267866
5433   0  1 37.123543 31.423787 37.124583
5434   0  1 37.121907 31.422622 39.978287
5435   0  1 37.120784 31.421989 42.832203
5436   0  1 37.120139 31.421690 45.686580
5437   0  1 37.119778 31.421547 48.541284
5438   0  1 37.119579 31.421476 51.396183
5439   0  1 37.119478 31.421442 54.251188
5440   0  1 37.119450 34.276893  0.000001
5441   0  1 37.119479 34.276913  2.855038
5442   0  1 37.119574 34.276978  5.710031
5443   0  1 37.119758 34.277107  8.564923
5444   0  1 37.120076 34.277339 11.419649
5445   0  1 37.120600 34.277749 14.274146
5446   0  1 37.121380 34.278447 17.128459
5447   0  1 37.122194 34.279341 19.983136
5448   0  1 37.121102 34.278514 22.840257
5449   0  1 37.119376 34.276895 25.697484
5450   0  1 37.118778 34.276281 28.553121
5451   0  1 37.119376 34.276895 31.408757
5452   0  1 37.121102 34.278514 34.265984
5453   0  1 37.122194 34.279341 37.123105
5454   0  1 37.121380 34.278447 39.977782
5455   0  1 37.120600 34.277749 42.832096
5456   0  1 37.120076 34.277339 45.686592
5457   0  1 37.119758 34.277107 48.541318
5458   0  1 37.119574 34.276978 51.396211
5459   0  1 37.119479 34.276913 54.251203
5460   0  1 37.119477 37.132343  0.000001
5461   0  1 37.119506 37.132372  2.855022
5462   0  1 37.119598 37.132464  5.710001
5463   0  1 37.119769 37.132635  8.564897
5464   0  1 37.120045 37.132911 11.419676
5465   0  1 37.120433 37.133299 14.274370
5466   0  1 37.120802 37.133668 17.129237
5467   0  1 37.120681 37.133547 19.984939
5468   0  1 37.119700 37.132566 22.841552
5469   0  1 37.118725 37.131591 25.697724
5470   0  1 37.118378 37.131244 28.553121
5471   0  1 37.118725 37.131591 31.408518
5472   0  1 37.119700 37.132566 34.264689
5473   0  1 37.120681 37.133547 37.121302
5474   0  1 37.120802 37.133668 39.977004
5475   0  1 37.120433 37.133299 42.831872
5476   0  1 37.120045 37.132911 45.686565
5477   0  1 37.119769 37.132635 48.541345
5478   0  1 37.119598 37.132464 51.396240
5479   0  1 37.119506 37.132372 54.251220
5480   0  1 37.119511 39.987767  0.000001
5481   0  1 37.119539 39.987802  2.855013
5482   0  1 37.119627 39.987912  5.709993
5483   0  1 37.119784 39.988104  8.564917
5484   0  1 37.120018 39.988378 11.419795
5485   0  1 37.120305 39.988687 14.274718
5486   0  1 37.120507 39.988855 17.129945
5487   0  1 37.120231 39.988485 19.985872
5488   0  1 37.119574 39.987770 22.842040
5489   0  1 37.119030 39.987230 25.697781
5490   0  1 37.118836 39.987048 28.553121
5491   0  1 37.119030 39.987230 31.408460
5492   0  1 37.119574 39.987770 34.264202
5493   0  1 37.120231 39.988485 37.120369
5494   0  1 37.120507 39.988855 39.976296
5495   0  1 37.120305 39.988687 42.831524
5496   0  1 37.120018 39.988378 45.686446
5497   0  1 37.119784 39.988104 48.541324
5498   0  1 37.119627 39.987912 51.396249
5499   0  1 37.119539 39.987802 54.251229
5500   0  1 37.119529 42.843139  0.000001
5501   0  1 37.119555 42.843177  2.855021
5502   0  1 37.119635 42.843290  5.710026
5503   0  1 37.119766 42.843467  8.565016
5504   0  1 37.119932 42.843672 11.420036
5505   0  1 37.120071 42.843807 14.275206
5506   0  1 37.120040 42.843693 17.130710
5507   0  1 37.119726 42.843280 19.986528
5508   0  1 37.119278 42.842800 22.842313
5509   0  1 37.118931 42.842478 25.697823
5510   0  1 37.118806 42.842372 28.553121
5511   0  1 37.118931 42.842478 31.408418
5512   0  1 37.119278 42.842800 34.263928
5513   0  1 37.119726 42.843280 37.119714
5514   0  1 37.120040 42.843693 39.975532
5515   0  1 37.120071 42.843807 42.831035
5516   0  1 37.119932 42.843672 45.686205
5517   0  1 37.119766 42.843467 48.541225
5518   0  1 37.119635 42.843290 51.396215
5519   0  1 37.119555 42.843177 54.251220
5520   0  1 37.119518 45.698442  0.000001
5521   0  1 37.119541 45.698477  2.855054
5522   0  1 37.119605 45.698573  5.710111
5523   0  1 37.119699 45.698700  8.565193
5524   0  1 37.119787 45.698796 11.420361
5525   0  1 37.119804 45.698765 14.275700
5526   0  1 37.119678 45.698552 17.131242
5527   0  1 37.119408 45.698220 19.986880
5528   0  1 37.119095 45.697909 22.842439
5529   0  1 37.118861 45.697711 25.697836
5530   0  1 37.118777 45.697645 28.553121
5531   0  1 37.118861 45.697711 31.408405
5532   0  1 37.119095 45.697909 34.263803
5533   0  1 37.119408 45.698220 37.119361
5534   0  1 37.119678 45.698552 39.975000
5535   0  1 37.119804 45.698765 42.830541
5536   0  1 37.119787 45.698796 45.685881
5537   0  1 37.119699 45.698700 48.541048
5538   0  1 37.119605 45.698573 51.396130
5539   0  1 37.119541 45.698477 54.251187
5540   0  1 37.119484 48.553669  0.000001
5541   0  1 37.119502 48.553695  2.855107
5542   0  1 37.119548 48.553760  5.710232
5543   0  1 37.119604 48.553824  8.565408
5544   0  1 37.119634 48.553831 11.420677
5545   0  1 37.119595 48.553734 14.276066
5546   0  1 37.119460 48.553542 17.131549
5547   0  1 37.119249 48.553315 19.987050
5548   0  1 37.119029 48.553123 22.842488
5549   0  1 37.118867 48.553003 25.697834
5550   0  1 37.118809 48.552964 28.553121
5551   0  1 37.118867 48.553003 31.408407
5552   0  1 37.119029 48.553123 34.263754
5553   0  1 37.119249 48.553315 37.119191
5554   0  1 37.119460 48.553542 39.974692
5555   0  1 37.119595 48.553734 42.830175
5556   0  1 37.119634 48.553831 45.685564
5557   0  1 37.119604 48.553824 48.540833
5558   0  1 37.119548 48.553760 51.396009
5559   0  1 37.119502 48.553695 54.251134
5560   0  1 37.119445 51.408822  0.000001
5561   0  1 37.119456 51.408837  2.855164
5562   0  1 37.119485 51.408870  5.710354
5563   0  1 37.119515 51.408888  8.565596
5564   0  1 37.119518 51.408859 11.420908
5565   0  1 37.119467 51.408770 14.276285
5566   0  1 37.119351 51.408641 17.131703
5567   0  1 37.119190 51.408506 19.987120
5568   0  1 37.119030 51.408398 22.842498
5569   0  1 37.118914 51.408332 25.697826
5570   0  1 37.118872 51.408310 28.553121
5571   0  1 37.118914 51.408332 31.408415
5572   0  1 37.119030 51.408398 34.263743
5573   0  1 37.119190 51.408506 37.119121
5574   0  1 37.119351 51.408641 39.974538
5575   0  1 37.119467 51.408770 42.829956
5576   0  1 37.119518 51.408859 45.685334
5577   0  1 37.119515 51.408888 48.540645
5578   0  1 37.119485 51.408870 51.395887
5579   0  1 37.119456 51.408837 54.251077
5580   0  1 37.119416 54.263916  0.000001
5581   0  1 37.119423 54.263922  2.855204
5582   0  1 37.119442 54.263932  5.710433
5583   0  1 37.119460 54.263931  8.565706
5584   0  1 37.119456 54.263906 11.421023
5585   0  1 37.119411 54.263859 14.276377
5586   0  1 37.119318 54.263798 17.131752
5587   0  1 37.119194 54.263740 19.987128
5588   0  1 37.119071 54.263696 22.842483
5589   0  1 37.118983 54.263669 25.697811
5590   0  1 37.118951 54.263661 28.553121
5591   0  1 37.118983 54.263669 31.408430
5592   0  1 37.119071 54.263696 34.263758
5593   0  1 37.119194 54.263740 37.119114
5594   0  1 37.119318 54.263798 39.974489
5595   0  1 37.119411 54.263859 42.829864
5596   0  1 37.119456 54.263906 45.685218
5597   0  1 37.119460 54.263931 48.540535
5598   0  1 37.119442 54.263932 51.395808
5599   0  1 37.119423 54.263922 54.251037
5600   0  1 39.974796  0.012696  0.000001
5601   0  1 39.974812  0.012693  2.855206
5602   0  1 39.974852  0.012685  5.710429
5603   0  1 39.974896  0.012675  8.565679
5604   0  1 39.974910  0.012669 11.420968
5605   0  1 39.974862  0.012669 14.276308
5606   0  1 39.974751  0.012674 17.131691
5607   0  1 39.974615  0.012683 19.987083
5608   0  1 39.974496  0.012693 22.842454
5609   0  1 39.974416  0.012700 25.697796
5610   0  1 39.974388  0.012702 28.553121
5611   0  1 39.974416  0.012700 31.408445
5612   0  1 39.974496  0.012693 34.263788
5613   0  1 39.974615  0.012683 37.119158
5614   0  1 39.974751  0.012674 39.974550
5615   0  1 39.974862  0.012669 42.829933
5616   0  1 39.974910  0.012669 45.685273
5617   0  1 39.974896  0.012675 48.540562
5618   0  1 39.974852  0.012685 51.395813
5619   0  1 39.974812  0.012693 54.251035
5620   0  1 39.974849  2.867754  0.000001
5621   0  1 39.974867  2.867739  2.855160
5622   0  1 39.974915  2.867705  5.710339
5623   0  1 39.974973  2.867677  8.565555
5624   0  1 39.975004  2.867677 11.420825
5625   0  1 39.974973  2.867712 14.276163
5626   0  1 39.974878  2.867771 17.131560
5627   0  1 39.974751  2.867837 19.986977
5628   0  1 39.974634  2.867892 22.842380
5629   0  1 39.974554  2.867928 25.697759
5630   0  1 39.974525  2.867941 28.553121
5631   0  1 39.974554  2.867928 31.408483
5632   0  1 39.974634  2.867892 34.263861
5633   0  1 39.974751  2.867837 37.119264
5634   0  1 39.974878  2.867771 39.974681
5635   0  1 39.974973  2.867712 42.830078
5636   0  1 39.975004  2.867677 45.685416
5637   0  1 39.974973  2.867677 48.540686
5638   0  1 39.974915  2.867705 51.395902
5639   0  1 39.974867  2.867739 54.251082
5640   0  1 39.974949  5.722846  0.000001
5641   0  1 39.974972  5.722815  2.855082
5642   0  1 39.975035  5.722738  5.710183
5643   0  1 39.975118  5.722661  8.565330
5644   0  1 39.975181  5.722632 11.420560
5645   0  1 39.975181  5.722675 14.275896
5646   0  1 39.975106  5.722776 17.131326
5647   0  1 39.974983  5.722898 19.986799
5648   0  1 39.974858  5.723002 22.842264
5649   0  1 39.974768  5.723070 25.697702
5650   0  1 39.974735  5.723094 28.553121
5651   0  1 39.974768  5.723070 31.408539
5652   0  1 39.974858  5.723002 34.263978
5653   0  1 39.974983  5.722898 37.119443
5654   0  1 39.975106  5.722776 39.974915
5655   0  1 39.975181  5.722675 42.830345
5656   0  1 39.975181  5.722632 45.685682
5657   0  1 39.975118  5.722661 48.540911
5658   0  1 39.975035  5.722738 51.396059
5659   0  1 39.974972  5.722815 54.251159
5660   0  1 39.975071  8.577997  0.000001
5661   0  1 39.975102  8.577949  2.855001
5662   0  1 39.975189  8.577820  5.710005
5663   0  1 39.975315  8.577657  8.565042
5664   0  1 39.975441  8.577535 11.420178
5665   0  1 39.975508  8.577523 14.275477
5666   0  1 39.975479  8.577631 17.130945
5667   0  1 39.975361  8.577803 19.986512
5668   0  1 39.975216  8.577962 22.842084
5669   0  1 39.975105  8.578067 25.697618
5670   0  1 39.975064  8.578103 28.553121
5671   0  1 39.975105  8.578067 31.408623
5672   0  1 39.975216  8.577962 34.264157
5673   0  1 39.975361  8.577803 37.119729
5674   0  1 39.975479  8.577631 39.975296
5675   0  1 39.975508  8.577523 42.830764
5676   0  1 39.975441  8.577535 45.686063
5677   0  1 39.975315  8.577657 48.541199
5678   0  1 39.975189  8.577820 51.396236
5679   0  1 39.975102  8.577949 54.251241
5680   0  1 39.975175 11.433232  0.000001
5681   0  1 39.975214 11.433173  2.854941
5682   0  1 39.975333 11.433000  5.709860
5683   0  1 39.975525 11.432737  8.564766
5684   0  1 39.975764 11.432448 11.419725
5685   0  1 39.975978 11.432258 14.274881
5686   0  1 39.976065 11.432278 17.130343
5687   0  1 39.975968 11.432474 19.986056
5688   0  1 39.975790 11.432693 22.841809
5689   0  1 39.975643 11.432842 25.697495
5690   0  1 39.975589 11.432892 28.553121
5691   0  1 39.975643 11.432842 31.408747
5692   0  1 39.975790 11.432693 34.264432
5693   0  1 39.975968 11.432474 37.120185
5694   0  1 39.976065 11.432277 39.975898
5695   0  1 39.975978 11.432258 42.831361
5696   0  1 39.975764 11.432448 45.686516
5697   0  1 39.975525 11.432737 48.541475
5698   0  1 39.975333 11.433000 51.396381
5699   0  1 39.975214 11.433173 54.251300
5700   0  1 39.975217 14.288571  0.000001
5701   0  1 39.975266 14.288510  2.854918
5702   0  1 39.975417 14.288320  5.709789
5703   0  1 39.975685 14.287990  8.564584
5704   0  1 39.976082 14.287521 11.419322
5705   0  1 39.976563 14.287000 14.274151
5706   0  1 39.976937 14.286706 17.129425
5707   0  1 39.976902 14.286850 19.985338
5708   0  1 39.976667 14.287134 22.841396
5709   0  1 39.976465 14.287338 25.697319
5710   0  1 39.976391 14.287407 28.553121
5711   0  1 39.976465 14.287338 31.408922
5712   0  1 39.976667 14.287134 34.264845
5713   0  1 39.976902 14.286850 37.120904
5714   0  1 39.976937 14.286706 39.976817
5715   0  1 39.976563 14.287000 42.832090
5716   0  1 39.976082 14.287521 45.686919
5717   0  1 39.975685 14.287990 48.541658
5718   0  1 39.975417 14.288320 51.396453
5719   0  1 39.975266 14.288510 54.251324
5720   0  1 39.975188 17.144007  0.000001
5721   0  1 39.975243 17.143952  2.854927
5722   0  1 39.975418 17.143777  5.709793
5723   0  1 39.975748 17.143447  8.564535
5724   0  1 39.976290 17.142905 11.419108
5725   0  1 39.977093 17.142103 14.273549
5726   0  1 39.978016 17.141179 17.128222
5727   0  1 39.978140 17.141055 19.984259
5728   0  1 39.977768 17.141427 22.840813
5729   0  1 39.977459 17.141737 25.697096
5730   0  1 39.977354 17.141842 28.553121
5731   0  1 39.977459 17.141737 31.409145
5732   0  1 39.977768 17.141427 34.265428
5733   0  1 39.978140 17.141055 37.121983
5734   0  1 39.978016 17.141179 39.978019
5735   0  1 39.977093 17.142103 42.832692
5736   0  1 39.976290 17.142905 45.687133
5737   0  1 39.975748 17.143447 48.541706
5738   0  1 39.975418 17.143777 51.396449
5739   0  1 39.975243 17.143952 54.251314
5740   0  1 39.975115 19.999497  0.000001
5741   0  1 39.975172 19.999456  2.854955
5742   0  1 39.975355 19.999320  5.709843
5743   0  1 39.975708 19.999058  8.564592
5744   0  1 39.976313 19.998602 11.419115
5745   0  1 39.977273 19.997853 14.273360
5746   0  1 39.978519 19.996770 17.127562
5747   0  1 39.979074 19.995843 19.982922
5748   0  1 39.978268 19.996356 22.840127
5749   0  1 39.977644 19.996954 25.696890
5750   0  1 39.977451 19.997171 28.553121
5751   0  1 39.977644 19.996954 31.409352
5752   0  1 39.978268 19.996356 34.266115
5753   0  1 39.979074 19.995843 37.123319
5754   0  1 39.978519 19.996770 39.978679
5755   0  1 39.977273 19.997853 42.832881
5756   0  1 39.976313 19.998602 45.687126
5757   0  1 39.975708 19.999058 48.541649
5758   0  1 39.975355 19.999320 51.396398
5759   0  1 39.975172 19.999456 54.251287
5760   0  1 39.975029 22.855000  0.000001
5761   0  1 39.975084 22.854974  2.854984
5762   0  1 39.975260 22.854890  5.709906
5763   0  1 39.975603 22.854727  8.564689
5764   0  1 39.976194 22.854446 11.419242
5765   0  1 39.977137 22.853979 14.273485
5766   0  1 39.978348 22.853265 17.127595
5767   0  1 39.978760 22.852427 19.982685
5768   0  1 39.977793 22.852070 22.839231
5769   0  1 39.976485 22.853038 25.696604
5770   0  1 39.976093 22.853484 28.553121
5771   0  1 39.976485 22.853038 31.409638
5772   0  1 39.977793 22.852070 34.267010
5773   0  1 39.978760 22.852427 37.123556
5774   0  1 39.978348 22.853265 39.978647
5775   0  1 39.977137 22.853979 42.832757
5776   0  1 39.976194 22.854446 45.687000
5777   0  1 39.975603 22.854727 48.541552
5778   0  1 39.975260 22.854890 51.396336
5779   0  1 39.975084 22.854974 54.251257
5780   0  1 39.974952 25.710495  0.000001
5781   0  1 39.975002 25.710484  2.855007
5782   0  1 39.975164 25.710450  5.709955
5783   0  1 39.975478 25.710388  8.564777
5784   0  1 39.976016 25.710289 11.419387
5785   0  1 39.976862 25.710138 14.273716
5786   0  1 39.977891 25.709902 17.127949
5787   0  1 39.977986 25.709495 19.983143
5788   0  1 39.976593 25.708973 22.839497
5789   0  1 39.974913 25.708832 25.696110
5790   0  1 39.974271 25.709287 28.553121
5791   0  1 39.974913 25.708832 31.410132
5792   0  1 39.976593 25.708973 34.266745
5793   0  1 39.977986 25.709495 37.123098
5794   0  1 39.977891 25.709902 39.978293
5795   0  1 39.976862 25.710138 42.832525
5796   0  1 39.976016 25.710289 45.686855
5797   0  1 39.975478 25.710388 48.541464
5798   0  1 39.975164 25.710450 51.396286
5799   0  1 39.975002 25.710484 54.251234
5800   0  1 39.974894 28.565977  0.000001
5801   0  1 39.974940 28.565980  2.855019
5802   0  1 39.975087 28.565989  5.709984
5803   0  1 39.975370 28.566011  8.564836
5804   0  1 39.975845 28.566062 11.419504
5805   0  1 39.976571 28.566164 14.273948
5806   0  1 39.977402 28.566301 17.128373
5807   0  1 39.977294 28.566222 19.983767
5808   0  1 39.975768 28.565661 22.840235
5809   0  1 39.973954 28.564722 25.696735
5810   0  1 39.973044 28.563954 28.553121
5811   0  1 39.973954 28.564722 31.409506
5812   0  1 39.975768 28.565661 34.266006
5813   0  1 39.977294 28.566222 37.122474
5814   0  1 39.977402 28.566301 39.977868
5815   0  1 39.976571 28.566164 42.832293
5816   0  1 39.975845 28.566062 45.686738
5817   0  1 39.975370 28.566011 48.541406
5818   0  1 39.975087 28.565989 51.396257
5819   0  1 39.974940 28.565980 54.251223
5820   0  1 39.974865 31.421450  0.000001
5821   0  1 39.974907 31.421463  2.855021
5822   0  1 39.975041 31.421507  5.709993
5823   0  1 39.975294 31.421595  8.564867
5824   0  1 39.975707 31.421754 11.419592
5825   0  1 39.976309 31.422021 14.274166
5826   0  1 39.976949 31.422371 17.128814
5827   0  1 39.976762 31.422432 19.984398
5828   0  1 39.975417 31.421740 22.841001
5829   0  1 39.973884 31.420423 25.697572
5830   0  1 39.973330 31.419812 28.553121
5831   0  1 39.973884 31.420423 31.408669
5832   0  1 39.975417 31.421740 34.265240
5833   0  1 39.976762 31.422432 37.121844
5834   0  1 39.976949 31.422371 39.977428
5835   0  1 39.976309 31.422021 42.832075
5836   0  1 39.975707 31.421754 45.686649
5837   0  1 39.975294 31.421595 48.541374
5838   0  1 39.975041 31.421507 51.396248
5839   0  1 39.974907 31.421463 54.251221
5840   0  1 39.974868 34.276917  0.000001
5841   0  1 39.974907 34.276939  2.855017
5842   0  1 39.975029 34.277009  5.709992
5843   0  1 39.975253 34.277142  8.564887
5844   0  1 39.975601 34.277365 11.419678
5845   0  1 39.976067 34.277698 14.274407
5846   0  1 39.976495 34.278080 17.129320
5847   0  1 39.976244 34.278058 19.985102
5848   0  1 39.975214 34.277270 22.841645
5849   0  1 39.974307 34.276386 25.697740
5850   0  1 39.974005 34.276048 28.553121
5851   0  1 39.974307 34.276386 31.408502
5852   0  1 39.975214 34.277270 34.264596
5853   0  1 39.976244 34.278058 37.121139
5854   0  1 39.976495 34.278080 39.976921
5855   0  1 39.976067 34.277698 42.831835
5856   0  1 39.975601 34.277365 45.686564
5857   0  1 39.975253 34.277142 48.541354
5858   0  1 39.975029 34.277009 51.396249
5859   0  1 39.974907 34.276939 54.251224
5860   0  1 39.974901 37.132377  0.000001
5861   0  1 39.974936 37.132405  2.855013
5862   0  1 39.975046 37.132493  5.709993
5863   0  1 39.975238 37.132650  8.564917
5864   0  1 39.975512 37.132884 11.419795
5865   0  1 39.975821 37.133171 14.274718
5866   0  1 39.975989 37.133373 17.129945
5867   0  1 39.975619 37.133097 19.985872
5868   0  1 39.974904 37.132440 22.842040
5869   0  1 39.974364 37.131896 25.697781
5870   0  1 39.974182 37.131702 28.553121
5871   0  1 39.974364 37.131896 31.408460
5872   0  1 39.974904 37.132440 34.264202
5873   0  1 39.975619 37.133097 37.120369
5874   0  1 39.975989 37.133373 39.976296
5875   0  1 39.975821 37.133171 42.831524
5876   0  1 39.975512 37.132884 45.686446
5877   0  1 39.975238 37.132650 48.541324
5878   0  1 39.975046 37.132493 51.396249
5879   0  1 39.974936 37.132405 54.251229
5880   0  1 39.974950 39.987816  0.000001
5881   0  1 39.974981 39.987847  2.855015
5882   0  1 39.975077 39.987943  5.710010
5883   0  1 39.975232 39.988098  8.564982
5884   0  1 39.975426 39.988292 11.419971
5885   0  1 39.975579 39.988445 14.275103
5886   0  1 39.975527 39.988393 17.130581
5887   0  1 39.975149 39.988015 19.986438
5888   0  1 39.974653 39.987519 22.842279
5889   0  1 39.974300 39.987166 25.697817
5890   0  1 39.974179 39.987045 28.553121
5891   0  1 39.974300 39.987166 31.408424
5892   0  1 39.974653 39.987519 34.263962
5893   0  1 39.975149 39.988015 37.119804
5894   0  1 39.975527 39.988393 39.975660
5895   0  1 39.975579 39.988445 42.831138
5896   0  1 39.975426 39.988292 45.686270
5897   0  1 39.975232 39.988098 48.541260
5898   0  1 39.975077 39.987943 51.396232
5899   0  1 39.974981 39.987847 54.251226
5900   0  1 39.974985 42.843198  0.000001
5901   0  1 39.975012 42.843229  2.855031
5902   0  1 39.975091 42.843320  5.710057
5903   0  1 39.975209 42.843452  8.565095
5904   0  1 39.975330 42.843579 11.420201
5905   0  1 39.975377 42.843611 14.275488
5906   0  1 39.975237 42.843439 17.131052
5907   0  1 39.974921 42.843099 19.986773
5908   0  1 39.974580 42.842760 22.842402
5909   0  1 39.974344 42.842537 25.697830
5910   0  1 39.974262 42.842463 28.553121
5911   0  1 39.974344 42.842537 31.408411
5912   0  1 39.974580 42.842760 34.263839
5913   0  1 39.974921 42.843099 37.119468
5914   0  1 39.975237 42.843439 39.975189
5915   0  1 39.975377 42.843611 42.830754
5916   0  1 39.975330 42.843579 45.686040
5917   0  1 39.975209 42.843452 48.541147
5918   0  1 39.975091 42.843320 51.396184
5919   0  1 39.975012 42.843229 54.251210
5920   0  1 39.974973 45.698487  0.000001
5921   0  1 39.974995 45.698516  2.855067
5922   0  1 39.975058 45.698592  5.710143
5923   0  1 39.975140 45.698683  8.565257
5924   0  1 39.975197 45.698731 11.420470
5925   0  1 39.975160 45.698662 14.275851
5926   0  1 39.974988 45.698459 17.131396
5927   0  1 39.974728 45.698194 19.986981
5928   0  1 39.974476 45.697963 22.842475
5929   0  1 39.974304 45.697819 25.697840
5930   0  1 39.974244 45.697771 28.553121
5931   0  1 39.974304 45.697819 31.408401
5932   0  1 39.974476 45.697963 34.263766
5933   0  1 39.974728 45.698194 37.119260
5934   0  1 39.974988 45.698459 39.974846
5935   0  1 39.975160 45.698662 42.830391
5936   0  1 39.975197 45.698731 45.685772
5937   0  1 39.975140 45.698683 48.540984
5938   0  1 39.975058 45.698592 51.396098
5939   0  1 39.974995 45.698516 54.251174
5940   0  1 39.974915 48.553681  0.000001
5941   0  1 39.974933 48.553704  2.855119
5942   0  1 39.974983 48.553758  5.710256
5943   0  1 39.975037 48.553805  8.565443
5944   0  1 39.975053 48.553793 11.420724
5945   0  1 39.974982 48.553691 14.276124
5946   0  1 39.974814 48.553518 17.131609
5947   0  1 39.974600 48.553331 19.987095
5948   0  1 39.974404 48.553179 22.842510
5949   0  1 39.974273 48.553087 25.697841
5950   0  1 39.974227 48.553057 28.553121
5951   0  1 39.974273 48.553087 31.408400
5952   0  1 39.974404 48.553179 34.263731
5953   0  1 39.974600 48.553331 37.119146
5954   0  1 39.974814 48.553518 39.974632
5955   0  1 39.974982 48.553691 42.830118
5956   0  1 39.975053 48.553793 45.685517
5957   0  1 39.975037 48.553805 48.540798
5958   0  1 39.974983 48.553758 51.395986
5959   0  1 39.974933 48.553704 54.251123
5960   0  1 39.974844 51.408805  0.000001
5961   0  1 39.974860 51.408820  2.855172
5962   0  1 39.974900 51.408849  5.710366
5963   0  1 39.974942 51.408863  8.565604
5964   0  1 39.974943 51.408831 11.420908
5965   0  1 39.974869 51.408746 14.276288
5966   0  1 39.974721 51.408630 17.131717
5967   0  1 39.974543 51.408515 19.987141
5968   0  1 39.974386 51.408426 22.842515
5969   0  1 39.974281 51.408373 25.697835
5970   0  1 39.974245 51.408355 28.553121
5971   0  1 39.974281 51.408373 31.408406
5972   0  1 39.974386 51.408426 34.263726
5973   0  1 39.974543 51.408515 37.119100
5974   0  1 39.974721 51.408630 39.974524
5975   0  1 39.974869 51.408746 42.829953
5976   0  1 39.974943 51.408831 45.685333
5977   0  1 39.974942 51.408863 48.540638
5978   0  1 39.974900 51.408849 51.395876
5979   0  1 39.974860 51.408820 54.251069
5980   0  1 39.974797 54.263883  0.000001
5981   0  1 39.974812 54.263888  2.855208
5982   0  1 39.974849 54.263898  5.710434
5983   0  1 39.974888 54.263896  8.565692
5984   0  1 39.974892 54.263872 11.420993
5985   0  1 39.974829 54.263828 14.276348
5986   0  1 39.974701 54.263773 17.131742
5987   0  1 39.974549 54.263723 19.987136
5988   0  1 39.974417 54.263686 22.842497
5989   0  1 39.974328 54.263665 25.697820
5990   0  1 39.974298 54.263658 28.553121
5991   0  1 39.974328 54.263665 31.408421
5992   0  1 39.974417 54.263686 34.263744
5993   0  1 39.974549 54.263723 37.119106
5994   0  1 39.974701 54.263773 39.974499
5995   0  1 39.974829 54.263828 42.829893
5996   0  1 39.974892 54.263872 45.685248
5997   0  1 39.974888 54.263896 48.540550
5998   0  1 39.974849 54.263898 51.395807
5999   0  1 39.974812 54.263888 54.251033
6000   0  1 42.830146  0.012673  0.000001
6001   0  1 42.830183  0.012669  2.855200
6002   0  1 42.830278  0.012658  5.710397
6003   0  1 42.830377  0.012646  8.565603
6004   0  1 42.830394  0.012636 11.420876
6005   0  1 42.830290  0.012632 14.276256
6006   0  1 42.830124  0.012635 17.131691
6007   0  1 42.829969  0.012641 19.987106
6008   0  1 42.829850  0.012648 22.842476
6009   0  1 42.829777  0.012654 25.697809
6010   0  1 42.829752  0.012656 28.553121
6011   0  1 42.829777  0.012654 31.408432
6012   0  1 42.829850  0.012648 34.263765
6013   0  1 42.829969  0.012641 37.119136
6014   0  1 42.830124  0.012635 39.974550
6015   0  1 42.830290  0.012632 42.829985
6016   0  1 42.830394  0.012636 45.685365
6017   0  1 42.830377  0.012646 48.540638
6018   0  1 42.830278  0.012658 51.395845
6019   0  1 42.830183  0.012669 54.251042
6020   0  1 42.830239  2.867718  0.000001
6021   0  1 42.830275  2.867697  2.855147
6022   0  1 42.830374  2.867654  5.710299
6023   0  1 42.830484  2.867620  8.565475
6024   0  1 42.830518  2.867619 11.420733
6025   0  1 42.830432  2.867652 14.276114
6026   0  1 42.830279  2.867705 17.131564
6027   0  1 42.830130  2.867760 19.987004
6028   0  1 42.830013  2.867804 22.842407
6029   0  1 42.829938  2.867833 25.697774
6030   0  1 42.829913  2.867842 28.553121
6031   0  1 42.829938  2.867833 31.408467
6032   0  1 42.830013  2.867804 34.263834
6033   0  1 42.830130  2.867760 37.119237
6034   0  1 42.830279  2.867705 39.974678
6035   0  1 42.830432  2.867652 42.830128
6036   0  1 42.830518  2.867619 45.685508
6037   0  1 42.830484  2.867620 48.540766
6038   0  1 42.830374  2.867654 51.395942
6039   0  1 42.830275  2.867697 54.251095
6040   0  1 42.830411  5.722779  0.000001
6041   0  1 42.830447  5.722743  2.855063
6042   0  1 42.830546  5.722657  5.710136
6043   0  1 42.830667  5.722579  8.565255
6044   0  1 42.830726  5.722557 11.420485
6045   0  1 42.830670  5.722604 14.275868
6046   0  1 42.830537  5.722694 17.131350
6047   0  1 42.830393  5.722792 19.986842
6048   0  1 42.830272  5.722872 22.842301
6049   0  1 42.830192  5.722922 25.697722
6050   0  1 42.830165  5.722940 28.553121
6051   0  1 42.830192  5.722922 31.408519
6052   0  1 42.830272  5.722872 34.263940
6053   0  1 42.830393  5.722792 37.119400
6054   0  1 42.830537  5.722694 39.974891
6055   0  1 42.830670  5.722604 42.830373
6056   0  1 42.830726  5.722557 45.685756
6057   0  1 42.830667  5.722579 48.540986
6058   0  1 42.830546  5.722657 51.396105
6059   0  1 42.830447  5.722743 54.251179
6060   0  1 42.830604  8.577883  0.000001
6061   0  1 42.830643  8.577836  2.854981
6062   0  1 42.830751  8.577711  5.709964
6063   0  1 42.830898  8.577561  8.564989
6064   0  1 42.831009  8.577469 11.420147
6065   0  1 42.831016  8.577478 14.275506
6066   0  1 42.830922  8.577576 17.131028
6067   0  1 42.830785  8.577705 19.986600
6068   0  1 42.830656  8.577818 22.842147
6069   0  1 42.830567  8.577891 25.697649
6070   0  1 42.830536  8.577915 28.553121
6071   0  1 42.830567  8.577891 31.408592
6072   0  1 42.830656  8.577818 34.264094
6073   0  1 42.830785  8.577705 37.119642
6074   0  1 42.830922  8.577576 39.975214
6075   0  1 42.831016  8.577478 42.830735
6076   0  1 42.831009  8.577469 45.686094
6077   0  1 42.830898  8.577561 48.541252
6078   0  1 42.830751  8.577711 51.396277
6079   0  1 42.830643  8.577836 54.251261
6080   0  1 42.830721 11.433101  0.000001
6081   0  1 42.830767 11.433047  2.854926
6082   0  1 42.830900 11.432893  5.709838
6083   0  1 42.831102 11.432667  8.564758
6084   0  1 42.831322 11.432438 11.419772
6085   0  1 42.831458 11.432319 14.275031
6086   0  1 42.831440 11.432362 17.130576
6087   0  1 42.831318 11.432499 19.986260
6088   0  1 42.831177 11.432641 22.841936
6089   0  1 42.831075 11.432736 25.697551
6090   0  1 42.831039 11.432768 28.553121
6091   0  1 42.831075 11.432736 31.408690
6092   0  1 42.831177 11.432641 34.264305
6093   0  1 42.831318 11.432499 37.119982
6094   0  1 42.831440 11.432362 39.975665
6095   0  1 42.831458 11.432319 42.831210
6096   0  1 42.831322 11.432438 45.686469
6097   0  1 42.831102 11.432667 48.541483
6098   0  1 42.830900 11.432893 51.396403
6099   0  1 42.830767 11.433047 54.251315
6100   0  1 42.830712 14.288484  0.000001
6101   0  1 42.830766 14.288429  2.854908
6102   0  1 42.830932 14.288263  5.709783
6103   0  1 42.831208 14.287987  8.564619
6104   0  1 42.831570 14.287626 11.419471
6105   0  1 42.831916 14.287279 14.274512
6106   0  1 42.832034 14.287161 17.130004
6107   0  1 42.831924 14.287271 19.985821
6108   0  1 42.831750 14.287445 22.841672
6109   0  1 42.831622 14.287573 25.697433
6110   0  1 42.831578 14.287618 28.553121
6111   0  1 42.831622 14.287573 31.408808
6112   0  1 42.831750 14.287445 34.264569
6113   0  1 42.831924 14.287271 37.120421
6114   0  1 42.832034 14.287161 39.976238
6115   0  1 42.831916 14.287279 42.831729
6116   0  1 42.831570 14.287626 45.686770
6117   0  1 42.831208 14.287987 48.541622
6118   0  1 42.830932 14.288263 51.396458
6119   0  1 42.830766 14.288429 54.251333
6120   0  1 42.830624 17.143978  0.000001
6121   0  1 42.830686 17.143930  2.854918
6122   0  1 42.830875 17.143779  5.709789
6123   0  1 42.831206 17.143510  8.564584
6124   0  1 42.831674 17.143114 11.419322
6125   0  1 42.832195 17.142632 14.274151
6126   0  1 42.832489 17.142258 17.129425
6127   0  1 42.832345 17.142293 19.985338
6128   0  1 42.832062 17.142529 22.841396
6129   0  1 42.831857 17.142731 25.697319
6130   0  1 42.831788 17.142804 28.553121
6131   0  1 42.831857 17.142731 31.408922
6132   0  1 42.832062 17.142529 34.264845
6133   0  1 42.832345 17.142293 37.120904
6134   0  1 42.832489 17.142258 39.976817
6135   0  1 42.832195 17.142632 42.832090
6136   0  1 42.831674 17.143114 45.686919
6137   0  1 42.831206 17.143510 48.541658
6138   0  1 42.830875 17.143779 51.396453
6139   0  1 42.830686 17.143930 54.251324
6140   0  1 42.830522 19.999502  0.000001
6141   0  1 42.830586 19.999466  2.854939
6142   0  1 42.830782 19.999352  5.709827
6143   0  1 42.831131 19.999145  8.564622
6144   0  1 42.831636 19.998824 11.419321
6145   0  1 42.832212 19.998396 14.274049
6146   0  1 42.832536 19.997968 17.129163
6147   0  1 42.832343 19.997785 19.984924
6148   0  1 42.831827 19.998059 22.841144
6149   0  1 42.831457 19.998380 25.697225
6150   0  1 42.831336 19.998507 28.553121
6151   0  1 42.831457 19.998380 31.409017
6152   0  1 42.831827 19.998059 34.265097
6153   0  1 42.832343 19.997785 37.121317
6154   0  1 42.832536 19.997968 39.977078
6155   0  1 42.832212 19.998396 42.832193
6156   0  1 42.831636 19.998824 45.686920
6157   0  1 42.831131 19.999145 48.541620
6158   0  1 42.830782 19.999352 51.396414
6159   0  1 42.830586 19.999466 54.251302
6160   0  1 42.830428 22.855018  0.000001
6161   0  1 42.830489 22.854997  2.854963
6162   0  1 42.830680 22.854930  5.709875
6163   0  1 42.831018 22.854809  8.564693
6164   0  1 42.831506 22.854619 11.419409
6165   0  1 42.832047 22.854356 14.274137
6166   0  1 42.832279 22.854055 17.129232
6167   0  1 42.831911 22.853823 19.984906
6168   0  1 42.831187 22.853842 22.840952
6169   0  1 42.830597 22.854178 25.697115
6170   0  1 42.830401 22.854350 28.553121
6171   0  1 42.830597 22.854178 31.409126
6172   0  1 42.831187 22.853842 34.265290
6173   0  1 42.831911 22.853823 37.121335
6174   0  1 42.832279 22.854055 39.977010
6175   0  1 42.832047 22.854356 42.832104
6176   0  1 42.831506 22.854619 45.686833
6177   0  1 42.831018 22.854809 48.541549
6178   0  1 42.830680 22.854930 51.396366
6179   0  1 42.830489 22.854997 54.251278
6180   0  1 42.830348 25.710517  0.000001
6181   0  1 42.830405 25.710510  2.854983
6182   0  1 42.830583 25.710489  5.709919
6183   0  1 42.830896 25.710452  8.564768
6184   0  1 42.831342 25.710396 11.419527
6185   0  1 42.831810 25.710311 14.274313
6186   0  1 42.831926 25.710176 17.129471
6187   0  1 42.831394 25.709980 19.985171
6188   0  1 42.830489 25.709787 22.841108
6189   0  1 42.829746 25.709732 25.697052
6190   0  1 42.829484 25.709811 28.553121
6191   0  1 42.829746 25.709732 31.409190
6192   0  1 42.830489 25.709787 34.265134
6193   0  1 42.831394 25.709980 37.121070
6194   0  1 42.831926 25.710176 39.976770
6195   0  1 42.831810 25.710311 42.831928
6196   0  1 42.831342 25.710396 45.686714
6197   0  1 42.830896 25.710452 48.541473
6198   0  1 42.830583 25.710489 51.396322
6199   0  1 42.830405 25.710510 54.251258
6200   0  1 42.830289 28.565999  0.000001
6201   0  1 42.830341 28.566005  2.854998
6202   0  1 42.830504 28.566022  5.709954
6203   0  1 42.830787 28.566056  8.564835
6204   0  1 42.831180 28.566109 11.419648
6205   0  1 42.831569 28.566166 14.274514
6206   0  1 42.831597 28.566154 17.129759
6207   0  1 42.830995 28.565977 19.985525
6208   0  1 42.830041 28.565613 22.841476
6209   0  1 42.829244 28.565168 25.697318
6210   0  1 42.828923 28.564902 28.553121
6211   0  1 42.829244 28.565168 31.408924
6212   0  1 42.830041 28.565613 34.264765
6213   0  1 42.830995 28.565977 37.120716
6214   0  1 42.831597 28.566154 39.976482
6215   0  1 42.831569 28.566166 42.831727
6216   0  1 42.831180 28.566109 45.686593
6217   0  1 42.830787 28.566056 48.541406
6218   0  1 42.830504 28.566022 51.396288
6219   0  1 42.830341 28.566005 54.251243
6220   0  1 42.830254 31.421469  0.000001
6221   0  1 42.830302 31.421484  2.855008
6222   0  1 42.830449 31.421532  5.709980
6223   0  1 42.830700 31.421619  8.564894
6224   0  1 42.831036 31.421748 11.419767
6225   0  1 42.831347 31.421893 14.274723
6226   0  1 42.831320 31.421942 17.130055
6227   0  1 42.830745 31.421739 19.985877
6228   0  1 42.829874 31.421232 22.841873
6229   0  1 42.829161 31.420593 25.697674
6230   0  1 42.828913 31.420310 28.553121
6231   0  1 42.829161 31.420592 31.408567
6232   0  1 42.829874 31.421232 34.264368
6233   0  1 42.830745 31.421739 37.120364
6234   0  1 42.831320 31.421942 39.976186
6235   0  1 42.831347 31.421893 42.831518
6236   0  1 42.831036 31.421748 45.686474
6237   0  1 42.830700 31.421619 48.541347
6238   0  1 42.830449 31.421532 51.396262
6239   0  1 42.830302 31.421484 54.251234
6240   0  1 42.830247 34.276933  0.000001
6241   0  1 42.830291 34.276955  2.855014
6242   0  1 42.830422 34.277024  5.710002
6243   0  1 42.830638 34.277144  8.564951
6244   0  1 42.830913 34.277312 11.419893
6245   0  1 42.831141 34.277487 14.274949
6246   0  1 42.831076 34.277530 17.130367
6247   0  1 42.830579 34.277269 19.986216
6248   0  1 42.829888 34.276715 22.842171
6249   0  1 42.829393 34.276204 25.697804
6250   0  1 42.829229 34.276008 28.553121
6251   0  1 42.829393 34.276204 31.408438
6252   0  1 42.829888 34.276715 34.264070
6253   0  1 42.830579 34.277269 37.120026
6254   0  1 42.831076 34.277530 39.975874
6255   0  1 42.831141 34.277487 42.831292
6256   0  1 42.830913 34.277312 45.686349
6257   0  1 42.830638 34.277144 48.541290
6258   0  1 42.830422 34.277024 51.396239
6259   0  1 42.830291 34.276955 54.251227
6260   0  1 42.830273 37.132395  0.000001
6261   0  1 42.830311 37.132421  2.855021
6262   0  1 42.830424 37.132501  5.710026
6263   0  1 42.830601 37.132632  8.565016
6264   0  1 42.830806 37.132797 11.420036
6265   0  1 42.830941 37.132937 14.275206
6266   0  1 42.830827 37.132906 17.130710
6267   0  1 42.830414 37.132592 19.986528
6268   0  1 42.829934 37.132144 22.842313
6269   0  1 42.829613 37.131797 25.697823
6270   0  1 42.829506 37.131672 28.553121
6271   0  1 42.829613 37.131797 31.408418
6272   0  1 42.829934 37.132144 34.263928
6273   0  1 42.830414 37.132592 37.119714
6274   0  1 42.830827 37.132906 39.975532
6275   0  1 42.830941 37.132937 42.831035
6276   0  1 42.830806 37.132797 45.686205
6277   0  1 42.830601 37.132632 48.541225
6278   0  1 42.830424 37.132501 51.396215
6279   0  1 42.830311 37.132421 54.251220
6280   0  1 42.830332 39.987851  0.000001
6281   0  1 42.830363 39.987878  2.855031
6282   0  1 42.830454 39.987957  5.710057
6283   0  1 42.830586 39.988075  8.565095
6284   0  1 42.830713 39.988196 11.420201
6285   0  1 42.830745 39.988243 14.275488
6286   0  1 42.830573 39.988103 17.131052
6287   0  1 42.830233 39.987787 19.986773
6288   0  1 42.829894 39.987446 22.842402
6289   0  1 42.829671 39.987210 25.697830
6290   0  1 42.829597 39.987128 28.553121
6291   0  1 42.829671 39.987210 31.408411
6292   0  1 42.829894 39.987446 34.263839
6293   0  1 42.830233 39.987787 37.119468
6294   0  1 42.830573 39.988103 39.975189
6295   0  1 42.830745 39.988243 42.830754
6296   0  1 42.830713 39.988196 45.686040
6297   0  1 42.830586 39.988075 48.541147
6298   0  1 42.830454 39.987957 51.396184
6299   0  1 42.830363 39.987878 54.251210
6300   0  1 42.830408 42.843274  0.000001
6301   0  1 42.830433 42.843299  2.855047
6302   0  1 42.830500 42.843366  5.710100
6303   0  1 42.830586 42.843452  8.565189
6304   0  1 42.830637 42.843503 11.420378
6305   0  1 42.830580 42.843446 14.275754
6306   0  1 42.830373 42.843239 17.131328
6307   0  1 42.830090 42.842956 19.986948
6308   0  1 42.829836 42.842702 22.842465
6309   0  1 42.829673 42.842539 25.697838
6310   0  1 42.829618 42.842484 28.553121
6311   0  1 42.829673 42.842539 31.408403
6312   0  1 42.829836 42.842702 34.263776
6313   0  1 42.830090 42.842956 37.119293
6314   0  1 42.830373 42.843239 39.974914
6315   0  1 42.830580 42.843446 42.830487
6316   0  1 42.830637 42.843503 45.685863
6317   0  1 42.830586 42.843452 48.541052
6318   0  1 42.830500 42.843366 51.396141
6319   0  1 42.830433 42.843299 54.251194
6320   0  1 42.830439 45.698591  0.000001
6321   0  1 42.830459 45.698613  2.855074
6322   0  1 42.830509 45.698666  5.710162
6323   0  1 42.830561 45.698717  8.565300
6324   0  1 42.830560 45.698706 11.420553
6325   0  1 42.830444 45.698580 14.275983
6326   0  1 42.830230 45.698370 17.131529
6327   0  1 42.829993 45.698145 19.987064
6328   0  1 42.829794 45.697964 22.842505
6329   0  1 42.829669 45.697853 25.697844
6330   0  1 42.829626 45.697817 28.553121
6331   0  1 42.829669 45.697853 31.408397
6332   0  1 42.829794 45.697964 34.263736
6333   0  1 42.829993 45.698145 37.119178
6334   0  1 42.830230 45.698370 39.974712
6335   0  1 42.830444 45.698580 42.830259
6336   0  1 42.830560 45.698706 45.685689
6337   0  1 42.830561 45.698717 48.540941
6338   0  1 42.830509 45.698666 51.396079
6339   0  1 42.830459 45.698613 54.251167
6340   0  1 42.830371 48.553759  0.000001
6341   0  1 42.830390 48.553778  2.855116
6342   0  1 42.830439 48.553822  5.710247
6343   0  1 42.830485 48.553847  8.565430
6344   0  1 42.830461 48.553796 11.420727
6345   0  1 42.830326 48.553665 14.276162
6346   0  1 42.830119 48.553493 17.131665
6347   0  1 42.829914 48.553330 19.987136
6348   0  1 42.829750 48.553208 22.842529
6349   0  1 42.829648 48.553135 25.697846
6350   0  1 42.829614 48.553111 28.553121
6351   0  1 42.829648 48.553135 31.408395
6352   0  1 42.829750 48.553208 34.263712
6353   0  1 42.829914 48.553330 37.119105
6354   0  1 42.830119 48.553493 39.974576
6355   0  1 42.830326 48.553665 42.830079
6356   0  1 42.830461 48.553796 45.685514
6357   0  1 42.830485 48.553847 48.540811
6358   0  1 42.830439 48.553822 51.395994
6359   0  1 42.830390 48.553778 54.251125
6360   0  1 42.830247 51.408829  0.000001
6361   0  1 42.830271 51.408846  2.855165
6362   0  1 42.830333 51.408879  5.710341
6363   0  1 42.830395 51.408886  8.565557
6364   0  1 42.830380 51.408837 11.420859
6365   0  1 42.830249 51.408738 14.276274
6366   0  1 42.830056 51.408622 17.131738
6367   0  1 42.829874 51.408520 19.987167
6368   0  1 42.829733 51.408446 22.842533
6369   0  1 42.829646 51.408403 25.697843
6370   0  1 42.829616 51.408389 28.553121
6371   0  1 42.829646 51.408403 31.408398
6372   0  1 42.829733 51.408446 34.263708
6373   0  1 42.829874 51.408520 37.119074
6374   0  1 42.830056 51.408622 39.974503
6375   0  1 42.830249 51.408738 42.829967
6376   0  1 42.830380 51.408837 45.685382
6377   0  1 42.830395 51.408886 48.540685
6378   0  1 42.830333 51.408879 51.395900
6379   0  1 42.830271 51.408846 54.251076
6380   0  1 42.830154 54.263873  0.000001
6381   0  1 42.830185 54.263882  2.855201
6382   0  1 42.830267 54.263896  5.710405
6383   0  1 42.830350 54.263892  8.565626
6384   0  1 42.830352 54.263863 11.420915
6385   0  1 42.830233 54.263812 14.276307
6386   0  1 42.830054 54.263756 17.131747
6387   0  1 42.829888 54.263711 19.987158
6388   0  1 42.829762 54.263679 22.842517
6389   0  1 42.829684 54.263662 25.697831
6390   0  1 42.829658 54.263656 28.553121
6391   0  1 42.829685 54.263662 31.408410
6392   0  1 42.829762 54.263679 34.263724
6393   0  1 42.829888 54.263711 37.119083
6394   0  1 42.830054 54.263756 39.974495
6395   0  1 42.830233 54.263812 42.829934
6396   0  1 42.830352 54.263863 45.685326
6397   0  1 42.830350 54.263892 48.540615
6398   0  1 42.830267 54.263896 51.395836
6399   0  1 42.830185 54.263882 54.251040
6400   0  1 45.685432  0.012671  0.000001
6401   0  1 45.685535  0.012667  2.855176
6402   0  1 45.685768  0.012655  5.710288
6403   0  1 45.685948  0.012641  8.565408
6404   0  1 45.685871  0.012629 11.420747
6405   0  1 45.685636  0.012621 14.276259
6406   0  1 45.685438  0.012620 17.131740
6407   0  1 45.685295  0.012622 19.987153
6408   0  1 45.685197  0.012626 22.842508
6409   0  1 45.685138  0.012630 25.697825
6410   0  1 45.685119  0.012631 28.553121
6411   0  1 45.685138  0.012630 31.408417
6412   0  1 45.685197  0.012626 34.263733
6413   0  1 45.685295  0.012622 37.119088
6414   0  1 45.685438  0.012620 39.974501
6415   0  1 45.685636  0.012621 42.829982
6416   0  1 45.685871  0.012629 45.685495
6417   0  1 45.685948  0.012641 48.540833
6418   0  1 45.685768  0.012655 51.395953
6419   0  1 45.685535  0.012667 54.251065
6420   0  1 45.685607  2.867686  0.000001
6421   0  1 45.685680  2.867651  2.855110
6422   0  1 45.685900  2.867586  5.710181
6423   0  1 45.686076  2.867560  8.565286
6424   0  1 45.686012  2.867584 11.420616
6425   0  1 45.685795  2.867636 14.276129
6426   0  1 45.685608  2.867687 17.131625
6427   0  1 45.685470  2.867731 19.987063
6428   0  1 45.685373  2.867764 22.842447
6429   0  1 45.685315  2.867785 25.697794
6430   0  1 45.685295  2.867792 28.553121
6431   0  1 45.685315  2.867785 31.408447
6432   0  1 45.685373  2.867764 34.263794
6433   0  1 45.685470  2.867731 37.119178
6434   0  1 45.685608  2.867687 39.974616
6435   0  1 45.685795  2.867636 42.830112
6436   0  1 45.686012  2.867584 45.685625
6437   0  1 45.686076  2.867560 48.540955
6438   0  1 45.685900  2.867586 51.396060
6439   0  1 45.685680  2.867651 54.251131
6440   0  1 45.685933  5.722656  0.000001
6441   0  1 45.685987  5.722609  2.855007
6442   0  1 45.686132  5.722508  5.710007
6443   0  1 45.686274  5.722463  8.565086
6444   0  1 45.686223  5.722510 11.420403
6445   0  1 45.686036  5.722603 14.275917
6446   0  1 45.685866  5.722697 17.131441
6447   0  1 45.685732  5.722777 19.986923
6448   0  1 45.685635  5.722837 22.842356
6449   0  1 45.685575  5.722874 25.697749
6450   0  1 45.685554  5.722886 28.553121
6451   0  1 45.685575  5.722874 31.408492
6452   0  1 45.685635  5.722837 34.263885
6453   0  1 45.685732  5.722777 37.119318
6454   0  1 45.685866  5.722697 39.974800
6455   0  1 45.686036  5.722603 42.830324
6456   0  1 45.686223  5.722510 45.685838
6457   0  1 45.686274  5.722463 48.541155
6458   0  1 45.686132  5.722508 51.396234
6459   0  1 45.685987  5.722609 54.251234
6460   0  1 45.686215  8.577671  0.000001
6461   0  1 45.686256  8.577628  2.854939
6462   0  1 45.686366  8.577519  5.709878
6463   0  1 45.686491  8.577410  8.564872
6464   0  1 45.686473  8.577445 11.420137
6465   0  1 45.686342  8.577544 14.275631
6466   0  1 45.686200  8.577659 17.131188
6467   0  1 45.686073  8.577767 19.986733
6468   0  1 45.685972  8.577851 22.842234
6469   0  1 45.685909  8.577904 25.697690
6470   0  1 45.685888  8.577922 28.553121
6471   0  1 45.685909  8.577904 31.408551
6472   0  1 45.685972  8.577851 34.264008
6473   0  1 45.686073  8.577767 37.119508
6474   0  1 45.686200  8.577659 39.975053
6475   0  1 45.686342  8.577544 42.830611
6476   0  1 45.686473  8.577445 45.686104
6477   0  1 45.686491  8.577410 48.541369
6478   0  1 45.686366  8.577519 51.396364
6479   0  1 45.686256  8.577628 54.251302
6480   0  1 45.686240 11.432955  0.000001
6481   0  1 45.686284 11.432911  2.854918
6482   0  1 45.686406 11.432789  5.709832
6483   0  1 45.686568 11.432627  8.564785
6484   0  1 45.686683 11.432513 11.419895
6485   0  1 45.686655 11.432540 14.275308
6486   0  1 45.686559 11.432637 17.130883
6487   0  1 45.686436 11.432759 19.986501
6488   0  1 45.686327 11.432869 22.842087
6489   0  1 45.686256 11.432940 25.697620
6490   0  1 45.686231 11.432964 28.553121
6491   0  1 45.686256 11.432940 31.408621
6492   0  1 45.686327 11.432869 34.264155
6493   0  1 45.686436 11.432759 37.119740
6494   0  1 45.686559 11.432637 39.975358
6495   0  1 45.686655 11.432540 42.830933
6496   0  1 45.686683 11.432513 45.686346
6497   0  1 45.686568 11.432627 48.541456
6498   0  1 45.686406 11.432789 51.396409
6499   0  1 45.686284 11.432911 54.251324
6500   0  1 45.686094 14.288474  0.000001
6501   0  1 45.686148 14.288429  2.854926
6502   0  1 45.686302 14.288296  5.709838
6503   0  1 45.686528 14.288093  8.564758
6504   0  1 45.686757 14.287874 11.419772
6505   0  1 45.686876 14.287738 14.275031
6506   0  1 45.686834 14.287755 17.130576
6507   0  1 45.686696 14.287877 19.986260
6508   0  1 45.686555 14.288019 22.841936
6509   0  1 45.686460 14.288120 25.697551
6510   0  1 45.686427 14.288156 28.553121
6511   0  1 45.686460 14.288120 31.408690
6512   0  1 45.686555 14.288019 34.264305
6513   0  1 45.686696 14.287877 37.119982
6514   0  1 45.686834 14.287755 39.975665
6515   0  1 45.686876 14.287738 42.831210
6516   0  1 45.686757 14.287874 45.686469
6517   0  1 45.686528 14.288093 48.541483
6518   0  1 45.686302 14.288296 51.396403
6519   0  1 45.686148 14.288429 54.251315
6520   0  1 45.685963 17.144021  0.000001
6521   0  1 45.686023 17.143981  2.854941
6522   0  1 45.686195 17.143862  5.709860
6523   0  1 45.686458 17.143670  8.564766
6524   0  1 45.686748 17.143432 11.419725
6525   0  1 45.686937 17.143218 14.274881
6526   0  1 45.686918 17.143130 17.130343
6527   0  1 45.686722 17.143228 19.986056
6528   0  1 45.686502 17.143406 22.841809
6529   0  1 45.686354 17.143552 25.697495
6530   0  1 45.686303 17.143607 28.553121
6531   0  1 45.686354 17.143552 31.408747
6532   0  1 45.686502 17.143406 34.264432
6533   0  1 45.686722 17.143228 37.120185
6534   0  1 45.686918 17.143130 39.975898
6535   0  1 45.686937 17.143218 42.831361
6536   0  1 45.686748 17.143432 45.686516
6537   0  1 45.686458 17.143670 48.541475
6538   0  1 45.686195 17.143862 51.396381
6539   0  1 45.686023 17.143981 54.251300
6540   0  1 45.685860 19.999550  0.000001
6541   0  1 45.685920 19.999522  2.854959
6542   0  1 45.686095 19.999436  5.709893
6543   0  1 45.686366 19.999293  8.564803
6544   0  1 45.686665 19.999104 11.419750
6545   0  1 45.686849 19.998911 14.274869
6546   0  1 45.686785 19.998785 17.130277
6547   0  1 45.686502 19.998803 19.985940
6548   0  1 45.686167 19.998975 22.841719
6549   0  1 45.685939 19.999156 25.697451
6550   0  1 45.685861 19.999229 28.553121
6551   0  1 45.685939 19.999156 31.408790
6552   0  1 45.686167 19.998975 34.264523
6553   0  1 45.686502 19.998803 37.120301
6554   0  1 45.686785 19.998785 39.975964
6555   0  1 45.686849 19.998911 42.831372
6556   0  1 45.686665 19.999104 45.686492
6557   0  1 45.686366 19.999293 48.541438
6558   0  1 45.686095 19.999436 51.396349
6559   0  1 45.685920 19.999522 54.251283
6560   0  1 45.685772 22.855059  0.000001
6561   0  1 45.685830 22.855044  2.854977
6562   0  1 45.685999 22.854997  5.709930
6563   0  1 45.686258 22.854917  8.564860
6564   0  1 45.686536 22.854808 11.419824
6565   0  1 45.686677 22.854685 14.274957
6566   0  1 45.686535 22.854578 17.130362
6567   0  1 45.686146 22.854530 19.985983
6568   0  1 45.685707 22.854585 22.841689
6569   0  1 45.685398 22.854722 25.697418
6570   0  1 45.685293 22.854791 28.553121
6571   0  1 45.685398 22.854722 31.408824
6572   0  1 45.685707 22.854585 34.264552
6573   0  1 45.686146 22.854530 37.120259
6574   0  1 45.686535 22.854578 39.975879
6575   0  1 45.686677 22.854685 42.831285
6576   0  1 45.686536 22.854808 45.686418
6577   0  1 45.686258 22.854917 48.541381
6578   0  1 45.685999 22.854997 51.396311
6579   0  1 45.685830 22.855044 54.251264
6580   0  1 45.685697 25.710549  0.000001
6581   0  1 45.685751 25.710546  2.854995
6582   0  1 45.685909 25.710535  5.709968
6583   0  1 45.686148 25.710516  8.564924
6584   0  1 45.686393 25.710486 11.419921
6585   0  1 45.686484 25.710437 14.275092
6586   0  1 45.686273 25.710362 17.130529
6587   0  1 45.685806 25.710264 19.986146
6588   0  1 45.685296 25.710174 22.841790
6589   0  1 45.684934 25.710135 25.697432
6590   0  1 45.684808 25.710142 28.553121
6591   0  1 45.684934 25.710135 31.408810
6592   0  1 45.685296 25.710174 34.264451
6593   0  1 45.685806 25.710264 37.120095
6594   0  1 45.686273 25.710362 39.975712
6595   0  1 45.686484 25.710437 42.831149
6596   0  1 45.686393 25.710486 45.686320
6597   0  1 45.686148 25.710516 48.541317
6598   0  1 45.685909 25.710535 51.396273
6599   0  1 45.685751 25.710546 54.251247
6600   0  1 45.685636 28.566022  0.000001
6601   0  1 45.685686 28.566029  2.855011
6602   0  1 45.685831 28.566049  5.710005
6603   0  1 45.686045 28.566079  8.564990
6604   0  1 45.686254 28.566112 11.420027
6605   0  1 45.686304 28.566119 14.275242
6606   0  1 45.686057 28.566061 17.130717
6607   0  1 45.685564 28.565913 19.986356
6608   0  1 45.685035 28.565692 22.841987
6609   0  1 45.684657 28.565466 25.697560
6610   0  1 45.684518 28.565356 28.553121
6611   0  1 45.684657 28.565466 31.408682
6612   0  1 45.685035 28.565692 34.264254
6613   0  1 45.685564 28.565913 37.119885
6614   0  1 45.686057 28.566061 39.975524
6615   0  1 45.686304 28.566119 42.830999
6616   0  1 45.686254 28.566112 45.686215
6617   0  1 45.686045 28.566079 48.541251
6618   0  1 45.685831 28.566049 51.396237
6619   0  1 45.685686 28.566029 54.251231
6620   0  1 45.685593 31.421483  0.000001
6621   0  1 45.685639 31.421497  2.855025
6622   0  1 45.685768 31.421539  5.710040
6623   0  1 45.685956 31.421606  8.565056
6624   0  1 45.686129 31.421680 11.420135
6625   0  1 45.686148 31.421717 14.275393
6626   0  1 45.685897 31.421655 17.130900
6627   0  1 45.685429 31.421453 19.986561
6628   0  1 45.684935 31.421133 22.842203
6629   0  1 45.684586 31.420806 25.697724
6630   0  1 45.684466 31.420668 28.553121
6631   0  1 45.684586 31.420806 31.408517
6632   0  1 45.684935 31.421133 34.264039
6633   0  1 45.685429 31.421453 37.119680
6634   0  1 45.685897 31.421655 39.975341
6635   0  1 45.686148 31.421717 42.830848
6636   0  1 45.686129 31.421680 45.686106
6637   0  1 45.685956 31.421606 48.541185
6638   0  1 45.685768 31.421539 51.396201
6639   0  1 45.685639 31.421497 54.251216
6640   0  1 45.685571 34.276935  0.000001
6641   0  1 45.685611 34.276954  2.855040
6642   0  1 45.685725 34.277012  5.710075
6643   0  1 45.685884 34.277100  8.565124
6644   0  1 45.686020 34.277193 11.420246
6645   0  1 45.686015 34.277234 14.275545
6646   0  1 45.685781 34.277148 17.131075
6647   0  1 45.685374 34.276898 19.986740
6648   0  1 45.684960 34.276543 22.842363
6649   0  1 45.684686 34.276241 25.697812
6650   0  1 45.684594 34.276126 28.553121
6651   0  1 45.684686 34.276241 31.408429
6652   0  1 45.684960 34.276543 34.263878
6653   0  1 45.685374 34.276898 37.119501
6654   0  1 45.685781 34.277148 39.975167
6655   0  1 45.686015 34.277234 42.830696
6656   0  1 45.686020 34.277193 45.685995
6657   0  1 45.685884 34.277100 48.541117
6658   0  1 45.685725 34.277012 51.396166
6659   0  1 45.685611 34.276954 54.251201
6660   0  1 45.685576 37.132384  0.000001
6661   0  1 45.685611 37.132407  2.855054
6662   0  1 45.685707 37.132471  5.710111
6663   0  1 45.685834 37.132565  8.565193
6664   0  1 45.685930 37.132653 11.420361
6665   0  1 45.685899 37.132670 14.275700
6666   0  1 45.685686 37.132544 17.131242
6667   0  1 45.685354 37.132274 19.986880
6668   0  1 45.685043 37.131961 22.842439
6669   0  1 45.684845 37.131727 25.697836
6670   0  1 45.684779 37.131643 28.553121
6671   0  1 45.684845 37.131727 31.408405
6672   0  1 45.685043 37.131961 34.263803
6673   0  1 45.685354 37.132274 37.119361
6674   0  1 45.685686 37.132544 39.975000
6675   0  1 45.685899 37.132670 42.830541
6676   0  1 45.685930 37.132653 45.685881
6677   0  1 45.685834 37.132565 48.541048
6678   0  1 45.685707 37.132471 51.396130
6679   0  1 45.685611 37.132407 54.251187
6680   0  1 45.685621 39.987839  0.000001
6681   0  1 45.685650 39.987861  2.855067
6682   0  1 45.685726 39.987924  5.710143
6683   0  1 45.685817 39.988006  8.565257
6684   0  1 45.685865 39.988063 11.420470
6685   0  1 45.685796 39.988026 14.275851
6686   0  1 45.685593 39.987854 17.131396
6687   0  1 45.685328 39.987594 19.986981
6688   0  1 45.685097 39.987341 22.842475
6689   0  1 45.684953 39.987170 25.697840
6690   0  1 45.684905 39.987110 28.553121
6691   0  1 45.684953 39.987170 31.408401
6692   0  1 45.685097 39.987341 34.263766
6693   0  1 45.685328 39.987594 37.119260
6694   0  1 45.685593 39.987854 39.974846
6695   0  1 45.685796 39.988026 42.830391
6696   0  1 45.685865 39.988063 45.685772
6697   0  1 45.685817 39.988006 48.540984
6698   0  1 45.685726 39.987924 51.396098
6699   0  1 45.685650 39.987861 54.251174
6700   0  1 45.685725 42.843305  0.000001
6701   0  1 45.685747 42.843325  2.855074
6702   0  1 45.685801 42.843375  5.710162
6703   0  1 45.685851 42.843427  8.565300
6704   0  1 45.685840 42.843426 11.420553
6705   0  1 45.685714 42.843310 14.275983
6706   0  1 45.685504 42.843096 17.131529
6707   0  1 45.685279 42.842859 19.987064
6708   0  1 45.685098 42.842660 22.842505
6709   0  1 45.684987 42.842535 25.697844
6710   0  1 45.684951 42.842492 28.553121
6711   0  1 45.684987 42.842535 31.408397
6712   0  1 45.685098 42.842660 34.263736
6713   0  1 45.685279 42.842859 37.119178
6714   0  1 45.685504 42.843096 39.974712
6715   0  1 45.685714 42.843310 42.830259
6716   0  1 45.685840 42.843426 45.685689
6717   0  1 45.685851 42.843427 48.540941
6718   0  1 45.685801 42.843375 51.396079
6719   0  1 45.685747 42.843325 54.251167
6720   0  1 45.685883 45.698749  0.000001
6721   0  1 45.685898 45.698764  2.855072
6722   0  1 45.685930 45.698796  5.710159
6723   0  1 45.685942 45.698807  8.565304
6724   0  1 45.685864 45.698730 11.420594
6725   0  1 45.685653 45.698519 14.276099
6726   0  1 45.685427 45.698293 17.131643
6727   0  1 45.685228 45.698094 19.987132
6728   0  1 45.685079 45.697944 22.842532
6729   0  1 45.684989 45.697855 25.697849
6730   0  1 45.684959 45.697825 28.553121
6731   0  1 45.684989 45.697855 31.408392
6732   0  1 45.685079 45.697944 34.263710
6733   0  1 45.685228 45.698094 37.119109
6734   0  1 45.685427 45.698293 39.974599
6735   0  1 45.685653 45.698519 42.830142
6736   0  1 45.685864 45.698730 45.685648
6737   0  1 45.685942 45.698807 48.540937
6738   0  1 45.685930 45.698796 51.396082
6739   0  1 45.685898 45.698764 54.251169
6740   0  1 45.685909 48.553975  0.000001
6741   0  1 45.685927 48.553992  2.855078
6742   0  1 45.685969 48.554025  5.710162
6743   0  1 45.685986 48.554018  8.565300
6744   0  1 45.685841 48.553856 11.420676
6745   0  1 45.685593 48.553649 14.276211
6746   0  1 45.685367 48.553462 17.131733
6747   0  1 45.685188 48.553314 19.987182
6748   0  1 45.685060 48.553210 22.842550
6749   0  1 45.684984 48.553150 25.697853
6750   0  1 45.684960 48.553130 28.553121
6751   0  1 45.684984 48.553150 31.408388
6752   0  1 45.685060 48.553210 34.263691
6753   0  1 45.685188 48.553314 37.119059
6754   0  1 45.685367 48.553462 39.974509
6755   0  1 45.685593 48.553649 42.830031
6756   0  1 45.685841 48.553856 45.685566
6757   0  1 45.685986 48.554018 48.540942
6758   0  1 45.685969 48.554025 51.396079
6759   0  1 45.685927 48.553992 54.251163
6760   0  1 45.685710 51.408952  0.000001
6761   0  1 45.685749 51.408980  2.855111
6762   0  1 45.685851 51.409029  5.710213
6763   0  1 45.685929 51.409003  8.565382
6764   0  1 45.685805 51.408886 11.420758
6765   0  1 45.685552 51.408738 14.276289
6766   0  1 45.685334 51.408613 17.131786
6767   0  1 45.685171 51.408518 19.987207
6768   0  1 45.685058 51.408455 22.842556
6769   0  1 45.684992 51.408419 25.697852
6770   0  1 45.684970 51.408408 28.553121
6771   0  1 45.684992 51.408419 31.408389
6772   0  1 45.685058 51.408455 34.263686
6773   0  1 45.685171 51.408518 37.119034
6774   0  1 45.685334 51.408613 39.974455
6775   0  1 45.685552 51.408738 42.829952
6776   0  1 45.685805 51.408886 45.685483
6777   0  1 45.685929 51.409003 48.540859
6778   0  1 45.685851 51.409029 51.396028
6779   0  1 45.685749 51.408980 54.251130
6780   0  1 45.685490 54.263903  0.000001
6781   0  1 45.685556 54.263925  2.855166
6782   0  1 45.685756 54.263960  5.710288
6783   0  1 45.685902 54.263946  8.565435
6784   0  1 45.685805 54.263885 11.420791
6785   0  1 45.685559 54.263810 14.276310
6786   0  1 45.685351 54.263749 17.131791
6787   0  1 45.685200 54.263705 19.987199
6788   0  1 45.685097 54.263677 22.842543
6789   0  1 45.685036 54.263662 25.697843
6790   0  1 45.685016 54.263657 28.553121
6791   0  1 45.685036 54.263662 31.408398
6792   0  1 45.685097 54.263677 34.263698
6793   0  1 45.685200 54.263705 37.119042
6794   0  1 45.685351 54.263749 39.974450
6795   0  1 45.685559 54.263810 42.829932
6796   0  1 45.685805 54.263885 45.685450
6797   0  1 45.685902 54.263946 48.540806
6798   0  1 45.685756 54.263960 51.395953
6799   0  1 45.685556 54.263925 54.251075
6800   0  1 48.540507  0.012696  0.000001
6801   0  1 48.540922  0.012692  2.855092
6802   0  1 48.541545  0.012681  5.709884
6803   0  1 48.541622  0.012667  8.565015
6804   0  1 48.541143  0.012654 11.420762
6805   0  1 48.540856  0.012644 14.276366
6806   0  1 48.540693  0.012640 17.131831
6807   0  1 48.540588  0.012639 19.987214
6808   0  1 48.540519  0.012640 22.842544
6809   0  1 48.540479  0.012641 25.697840
6810   0  1 48.540465  0.012641 28.553121
6811   0  1 48.540479  0.012641 31.408401
6812   0  1 48.540519  0.012640 34.263698
6813   0  1 48.540588  0.012639 37.119028
6814   0  1 48.540693  0.012640 39.974410
6815   0  1 48.540856  0.012644 42.829876
6816   0  1 48.541143  0.012654 45.685479
6817   0  1 48.541622  0.012667 48.541227
6818   0  1 48.541545  0.012681 51.396357
6819   0  1 48.540922  0.012692 54.251149
6820   0  1 48.541006  2.867619  0.000001
6821   0  1 48.541141  2.867560  2.855005
6822   0  1 48.541711  2.867419  5.709762
6823   0  1 48.541757  2.867481  8.564907
6824   0  1 48.541294  2.867603 11.420645
6825   0  1 48.541019  2.867680 14.276253
6826   0  1 48.540861  2.867730 17.131735
6827   0  1 48.540760  2.867765 19.987140
6828   0  1 48.540692  2.867790 22.842494
6829   0  1 48.540652  2.867805 25.697816
6830   0  1 48.540639  2.867810 28.553121
6831   0  1 48.540652  2.867805 31.408426
6832   0  1 48.540692  2.867790 34.263747
6833   0  1 48.540760  2.867765 37.119101
6834   0  1 48.540861  2.867730 39.974506
6835   0  1 48.541019  2.867680 42.829988
6836   0  1 48.541294  2.867603 45.685596
6837   0  1 48.541757  2.867481 48.541334
6838   0  1 48.541711  2.867419 51.396479
6839   0  1 48.541141  2.867560 54.251236
6840   0  1 48.541730  5.722263  0.000001
6841   0  1 48.541805  5.722196  2.854831
6842   0  1 48.542037  5.722032  5.709532
6843   0  1 48.541938  5.722273  8.564741
6844   0  1 48.541501  5.722531 11.420452
6845   0  1 48.541241  5.722692 14.276069
6846   0  1 48.541089  5.722792 17.131583
6847   0  1 48.540988  5.722862 19.987028
6848   0  1 48.540920  5.722910 22.842422
6849   0  1 48.540880  5.722938 25.697780
6850   0  1 48.540866  5.722947 28.553121
6851   0  1 48.540880  5.722938 31.408461
6852   0  1 48.540920  5.722910 34.263820
6853   0  1 48.540988  5.722862 37.119213
6854   0  1 48.541089  5.722792 39.974658
6855   0  1 48.541241  5.722692 42.830172
6856   0  1 48.541501  5.722531 45.685789
6857   0  1 48.541938  5.722273 48.541500
6858   0  1 48.542037  5.722032 51.396709
6859   0  1 48.541805  5.722196 54.251411
6860   0  1 48.541910  8.577286  0.000001
6861   0  1 48.541946  8.577249  2.854856
6862   0  1 48.542031  8.577165  5.709699
6863   0  1 48.542085  8.577110  8.564591
6864   0  1 48.541699  8.577496 11.420232
6865   0  1 48.541478  8.577718 14.275840
6866   0  1 48.541337  8.577859 17.131390
6867   0  1 48.541235  8.577961 19.986886
6868   0  1 48.541163  8.578033 22.842331
6869   0  1 48.541119  8.578076 25.697737
6870   0  1 48.541105  8.578090 28.553121
6871   0  1 48.541119  8.578076 31.408505
6872   0  1 48.541163  8.578033 34.263910
6873   0  1 48.541235  8.577961 37.119356
6874   0  1 48.541337  8.577859 39.974852
6875   0  1 48.541478  8.577718 42.830401
6876   0  1 48.541699  8.577496 45.686010
6877   0  1 48.542085  8.577110 48.541650
6878   0  1 48.542031  8.577165 51.396543
6879   0  1 48.541946  8.577249 54.251386
6880   0  1 48.541524 11.432980  0.000001
6881   0  1 48.541568 11.432939  2.854939
6882   0  1 48.541677 11.432830  5.709878
6883   0  1 48.541785 11.432705  8.564872
6884   0  1 48.541750 11.432722 11.420137
6885   0  1 48.541651 11.432854 14.275631
6886   0  1 48.541536 11.432995 17.131188
6887   0  1 48.541428 11.433123 19.986733
6888   0  1 48.541344 11.433223 22.842234
6889   0  1 48.541291 11.433286 25.697690
6890   0  1 48.541274 11.433308 28.553121
6891   0  1 48.541291 11.433286 31.408551
6892   0  1 48.541344 11.433223 34.264008
6893   0  1 48.541428 11.433123 37.119508
6894   0  1 48.541536 11.432995 39.975053
6895   0  1 48.541651 11.432854 42.830611
6896   0  1 48.541750 11.432722 45.686104
6897   0  1 48.541785 11.432705 48.541369
6898   0  1 48.541677 11.432830 51.396364
6899   0  1 48.541568 11.432939 54.251302
6900   0  1 48.541313 14.288592  0.000001
6901   0  1 48.541360 14.288553  2.854981
6902   0  1 48.541485 14.288444  5.709964
6903   0  1 48.541635 14.288298  8.564989
6904   0  1 48.541727 14.288187 11.420147
6905   0  1 48.541717 14.288179 14.275506
6906   0  1 48.541620 14.288274 17.131028
6907   0  1 48.541491 14.288410 19.986600
6908   0  1 48.541378 14.288539 22.842147
6909   0  1 48.541305 14.288628 25.697649
6910   0  1 48.541280 14.288659 28.553121
6911   0  1 48.541305 14.288628 31.408592
6912   0  1 48.541378 14.288539 34.264094
6913   0  1 48.541491 14.288410 37.119642
6914   0  1 48.541620 14.288274 39.975214
6915   0  1 48.541717 14.288179 42.830735
6916   0  1 48.541727 14.288187 45.686094
6917   0  1 48.541635 14.288298 48.541252
6918   0  1 48.541485 14.288444 51.396277
6919   0  1 48.541360 14.288553 54.251261
6920   0  1 48.541198 17.144124  0.000001
6921   0  1 48.541246 17.144094  2.855001
6922   0  1 48.541375 17.144006  5.710005
6923   0  1 48.541538 17.143880  8.565042
6924   0  1 48.541660 17.143754 11.420178
6925   0  1 48.541672 17.143687 14.275477
6926   0  1 48.541564 17.143717 17.130945
6927   0  1 48.541393 17.143835 19.986512
6928   0  1 48.541233 17.143979 22.842084
6929   0  1 48.541128 17.144090 25.697618
6930   0  1 48.541092 17.144131 28.553121
6931   0  1 48.541128 17.144090 31.408623
6932   0  1 48.541233 17.143979 34.264157
6933   0  1 48.541393 17.143835 37.119729
6934   0  1 48.541564 17.143717 39.975296
6935   0  1 48.541672 17.143687 42.830764
6936   0  1 48.541660 17.143754 45.686063
6937   0  1 48.541538 17.143880 48.541199
6938   0  1 48.541375 17.144006 51.396236
6939   0  1 48.541246 17.144094 54.251241
6940   0  1 48.541115 19.999625  0.000001
6941   0  1 48.541162 19.999605  2.855015
6942   0  1 48.541288 19.999546  5.710034
6943   0  1 48.541447 19.999459  8.565086
6944   0  1 48.541561 19.999363 11.420228
6945   0  1 48.541551 19.999294 14.275517
6946   0  1 48.541403 19.999284 17.130954
6947   0  1 48.541178 19.999351 19.986487
6948   0  1 48.540965 19.999473 22.842051
6949   0  1 48.540823 19.999585 25.697597
6950   0  1 48.540775 19.999629 28.553121
6951   0  1 48.540823 19.999585 31.408644
6952   0  1 48.540965 19.999473 34.264190
6953   0  1 48.541178 19.999351 37.119755
6954   0  1 48.541403 19.999284 39.975287
6955   0  1 48.541551 19.999294 42.830725
6956   0  1 48.541561 19.999363 45.686013
6957   0  1 48.541447 19.999459 48.541155
6958   0  1 48.541288 19.999546 51.396207
6959   0  1 48.541162 19.999605 54.251226
6960   0  1 48.541042 22.855109  0.000001
6961   0  1 48.541086 22.855099  2.855029
6962   0  1 48.541205 22.855070  5.710064
6963   0  1 48.541352 22.855025  8.565135
6964   0  1 48.541444 22.854971 11.420297
6965   0  1 48.541398 22.854922 14.275600
6966   0  1 48.541202 22.854894 17.131033
6967   0  1 48.540926 22.854902 19.986534
6968   0  1 48.540669 22.854951 22.842058
6969   0  1 48.540498 22.855019 25.697590
6970   0  1 48.540439 22.855052 28.553121
6971   0  1 48.540498 22.855019 31.408652
6972   0  1 48.540669 22.854951 34.264183
6973   0  1 48.540926 22.854902 37.119707
6974   0  1 48.541202 22.854894 39.975209
6975   0  1 48.541398 22.854922 42.830642
6976   0  1 48.541444 22.854971 45.685945
6977   0  1 48.541352 22.855025 48.541107
6978   0  1 48.541205 22.855070 51.396177
6979   0  1 48.541086 22.855099 54.251213
6980   0  1 48.540974 25.710580  0.000001
6981   0  1 48.541015 25.710579  2.855043
6982   0  1 48.541125 25.710575  5.710096
6983   0  1 48.541256 25.710567  8.565187
6984   0  1 48.541324 25.710551 11.420374
6985   0  1 48.541248 25.710524 14.275701
6986   0  1 48.541016 25.710484 17.131147
6987   0  1 48.540707 25.710434 19.986637
6988   0  1 48.540423 25.710390 22.842123
6989   0  1 48.540234 25.710366 25.697611
6990   0  1 48.540169 25.710363 28.553121
6991   0  1 48.540234 25.710366 31.408630
6992   0  1 48.540423 25.710390 34.264119
6993   0  1 48.540707 25.710434 37.119604
6994   0  1 48.541016 25.710484 39.975095
6995   0  1 48.541248 25.710524 42.830540
6996   0  1 48.541324 25.710551 45.685867
6997   0  1 48.541256 25.710567 48.541054
6998   0  1 48.541125 25.710575 51.396146
6999   0  1 48.541015 25.710579 54.251198
7000   0  1 48.540913 28.566039  0.000001
7001   0  1 48.540951 28.566044  2.855058
7002   0  1 48.541050 28.566060  5.710129
7003   0  1 48.541164 28.566080  8.565243
7004   0  1 48.541212 28.566093 11.420455
7005   0  1 48.541117 28.566078 14.275805
7006   0  1 48.540870 28.566021 17.131268
7007   0  1 48.540552 28.565919 19.986762
7008   0  1 48.540264 28.565787 22.842232
7009   0  1 48.540072 28.565668 25.697677
7010   0  1 48.540004 28.565616 28.553121
7011   0  1 48.540072 28.565668 31.408564
7012   0  1 48.540264 28.565787 34.264009
7013   0  1 48.540552 28.565919 37.119479
7014   0  1 48.540870 28.566021 39.974974
7015   0  1 48.541117 28.566078 42.830436
7016   0  1 48.541212 28.566093 45.685787
7017   0  1 48.541164 28.566080 48.540999
7018   0  1 48.541050 28.566060 51.396113
7019   0  1 48.540951 28.566044 54.251183
7020   0  1 48.540861 31.421485  0.000001
7021   0  1 48.540895 31.421496  2.855074
7022   0  1 48.540983 31.421527  5.710163
7023   0  1 48.541081 31.421566  8.565299
7024   0  1 48.541113 31.421595 11.420534
7025   0  1 48.541011 31.421582 14.275902
7026   0  1 48.540771 31.421502 17.131378
7027   0  1 48.540468 31.421351 19.986883
7028   0  1 48.540196 31.421154 22.842350
7029   0  1 48.540016 31.420976 25.697758
7030   0  1 48.539955 31.420904 28.553121
7031   0  1 48.540016 31.420976 31.408483
7032   0  1 48.540196 31.421154 34.263891
7033   0  1 48.540468 31.421351 37.119358
7034   0  1 48.540771 31.421502 39.974863
7035   0  1 48.541011 31.421582 42.830339
7036   0  1 48.541113 31.421595 45.685708
7037   0  1 48.541081 31.421566 48.540942
7038   0  1 48.540983 31.421527 51.396078
7039   0  1 48.540895 31.421496 54.251167
7040   0  1 48.540822 34.276922  0.000001
7041   0  1 48.540852 34.276936  2.855091
7042   0  1 48.540929 34.276976  5.710199
7043   0  1 48.541010 34.277027  8.565356
7044   0  1 48.541030 34.277062 11.420609
7045   0  1 48.540930 34.277041 14.275990
7046   0  1 48.540711 34.276934 17.131473
7047   0  1 48.540441 34.276744 19.986981
7048   0  1 48.540203 34.276517 22.842440
7049   0  1 48.540051 34.276333 25.697812
7050   0  1 48.540001 34.276264 28.553121
7051   0  1 48.540051 34.276333 31.408429
7052   0  1 48.540203 34.276517 34.263801
7053   0  1 48.540441 34.276744 37.119260
7054   0  1 48.540711 34.276934 39.974768
7055   0  1 48.540930 34.277041 42.830251
7056   0  1 48.541030 34.277062 45.685632
7057   0  1 48.541010 34.277027 48.540885
7058   0  1 48.540929 34.276976 51.396043
7059   0  1 48.540852 34.276936 54.251150
7060   0  1 48.540803 37.132350  0.000001
7061   0  1 48.540829 37.132368  2.855107
7062   0  1 48.540894 37.132414  5.710232
7063   0  1 48.540958 37.132470  8.565408
7064   0  1 48.540965 37.132500 11.420677
7065   0  1 48.540868 37.132461 14.276066
7066   0  1 48.540676 37.132326 17.131549
7067   0  1 48.540449 37.132115 19.987050
7068   0  1 48.540257 37.131895 22.842488
7069   0  1 48.540137 37.131733 25.697834
7070   0  1 48.540098 37.131675 28.553121
7071   0  1 48.540137 37.131733 31.408407
7072   0  1 48.540257 37.131895 34.263754
7073   0  1 48.540449 37.132115 37.119191
7074   0  1 48.540676 37.132326 39.974692
7075   0  1 48.540868 37.132461 42.830175
7076   0  1 48.540965 37.132500 45.685564
7077   0  1 48.540958 37.132470 48.540833
7078   0  1 48.540894 37.132414 51.396009
7079   0  1 48.540829 37.132368 54.251134
7080   0  1 48.540815 39.987781  0.000001
7081   0  1 48.540838 39.987799  2.855119
7082   0  1 48.540892 39.987848  5.710256
7083   0  1 48.540939 39.987903  8.565443
7084   0  1 48.540927 39.987919 11.420724
7085   0  1 48.540825 39.987848 14.276124
7086   0  1 48.540652 39.987680 17.131609
7087   0  1 48.540465 39.987466 19.987095
7088   0  1 48.540314 39.987270 22.842510
7089   0  1 48.540221 39.987139 25.697841
7090   0  1 48.540191 39.987093 28.553121
7091   0  1 48.540221 39.987139 31.408400
7092   0  1 48.540314 39.987270 34.263731
7093   0  1 48.540465 39.987466 37.119146
7094   0  1 48.540652 39.987680 39.974632
7095   0  1 48.540825 39.987848 42.830118
7096   0  1 48.540927 39.987919 45.685517
7097   0  1 48.540939 39.987903 48.540798
7098   0  1 48.540892 39.987848 51.395986
7099   0  1 48.540838 39.987799 54.251123
7100   0  1 48.540893 42.843237  0.000001
7101   0  1 48.540912 42.843256  2.855116
7102   0  1 48.540956 42.843305  5.710247
7103   0  1 48.540981 42.843350  8.565430
7104   0  1 48.540930 42.843327 11.420727
7105   0  1 48.540799 42.843191 14.276162
7106   0  1 48.540627 42.842985 17.131665
7107   0  1 48.540464 42.842780 19.987136
7108   0  1 48.540342 42.842616 22.842529
7109   0  1 48.540269 42.842514 25.697846
7110   0  1 48.540245 42.842480 28.553121
7111   0  1 48.540269 42.842514 31.408395
7112   0  1 48.540342 42.842616 34.263712
7113   0  1 48.540464 42.842780 37.119105
7114   0  1 48.540627 42.842985 39.974576
7115   0  1 48.540799 42.843191 42.830079
7116   0  1 48.540930 42.843327 45.685514
7117   0  1 48.540981 42.843350 48.540811
7118   0  1 48.540956 42.843305 51.395994
7119   0  1 48.540912 42.843256 54.251125
7120   0  1 48.541109 45.698775  0.000001
7121   0  1 48.541126 45.698793  2.855078
7122   0  1 48.541159 45.698835  5.710162
7123   0  1 48.541153 45.698852  8.565300
7124   0  1 48.540990 45.698707 11.420676
7125   0  1 48.540783 45.698459 14.276211
7126   0  1 48.540596 45.698233 17.131733
7127   0  1 48.540448 45.698054 19.987182
7128   0  1 48.540344 45.697926 22.842550
7129   0  1 48.540284 45.697850 25.697853
7130   0  1 48.540264 45.697826 28.553121
7131   0  1 48.540284 45.697850 31.408388
7132   0  1 48.540344 45.697926 34.263691
7133   0  1 48.540448 45.698054 37.119059
7134   0  1 48.540596 45.698233 39.974509
7135   0  1 48.540783 45.698459 42.830031
7136   0  1 48.540990 45.698707 45.685566
7137   0  1 48.541153 45.698852 48.540942
7138   0  1 48.541159 45.698835 51.396079
7139   0  1 48.541126 45.698793 54.251163
7140   0  1 48.541545 48.554411  0.000001
7141   0  1 48.541560 48.554426  2.854981
7142   0  1 48.541583 48.554449  5.709948
7143   0  1 48.541549 48.554415  8.564952
7144   0  1 48.541068 48.553934 11.420664
7145   0  1 48.540766 48.553632 14.276291
7146   0  1 48.540569 48.553435 17.131805
7147   0  1 48.540432 48.553298 19.987225
7148   0  1 48.540342 48.553208 22.842569
7149   0  1 48.540290 48.553156 25.697859
7150   0  1 48.540273 48.553139 28.553121
7151   0  1 48.540290 48.553156 31.408383
7152   0  1 48.540342 48.553208 34.263673
7153   0  1 48.540432 48.553298 37.119017
7154   0  1 48.540569 48.553435 39.974437
7155   0  1 48.540766 48.553632 42.829951
7156   0  1 48.541068 48.553934 45.685577
7157   0  1 48.541549 48.554415 48.541290
7158   0  1 48.541583 48.554449 51.396293
7159   0  1 48.541560 48.554426 54.251260
7160   0  1 48.541459 51.409395  0.000001
7161   0  1 48.541520 51.409446  2.854925
7162   0  1 48.541710 51.409565  5.709715
7163   0  1 48.541555 51.409265  8.564995
7164   0  1 48.541059 51.408948 11.420747
7165   0  1 48.540749 51.408739 14.276370
7166   0  1 48.540561 51.408607 17.131857
7167   0  1 48.540437 51.408520 19.987251
7168   0  1 48.540357 51.408464 22.842577
7169   0  1 48.540311 51.408433 25.697860
7170   0  1 48.540296 51.408423 28.553121
7171   0  1 48.540311 51.408433 31.408381
7172   0  1 48.540357 51.408464 34.263664
7173   0  1 48.540437 51.408520 37.118991
7174   0  1 48.540561 51.408607 39.974384
7175   0  1 48.540749 51.408739 42.829871
7176   0  1 48.541059 51.408948 45.685494
7177   0  1 48.541555 51.409265 48.541246
7178   0  1 48.541710 51.409565 51.396526
7179   0  1 48.541519 51.409446 54.251316
7180   0  1 48.540862 54.264019  0.000001
7181   0  1 48.540990 54.264067  2.855056
7182   0  1 48.541540 54.264180  5.709858
7183   0  1 48.541560 54.264081  8.565037
7184   0  1 48.541069 54.263925 11.420793
7185   0  1 48.540770 54.263822 14.276402
7186   0  1 48.540595 54.263757 17.131870
7187   0  1 48.540483 54.263715 19.987249
7188   0  1 48.540410 54.263690 22.842571
7189   0  1 48.540368 54.263676 25.697855
7190   0  1 48.540354 54.263672 28.553121
7191   0  1 48.540368 54.263676 31.408386
7192   0  1 48.540410 54.263690 34.263671
7193   0  1 48.540483 54.263715 37.118992
7194   0  1 48.540595 54.263757 39.974371
7195   0  1 48.540770 54.263822 42.829839
7196   0  1 48.541069 54.263925 45.685448
7197   0  1 48.541560 54.264081 48.541204
7198   0  1 48.541540 54.264180 51.396384
7199   0  1 48.540990 54.264067 54.251185
7200   0  1 51.393618  0.012745  0.000001
7201   0  1 51.396960  0.012745  2.854440
7202   0  1 51.398160  0.012737  5.708427
7203   0  1 51.396649  0.012725  8.565158
7204   0  1 51.396180  0.012714 11.421012
7205   0  1 51.396004  0.012705 14.276530
7206   0  1 51.395908  0.012700 17.131930
7207   0  1 51.395847  0.012697 19.987271
7208   0  1 51.395805  0.012696 22.842575
7209   0  1 51.395782  0.012696 25.697854
7210   0  1 51.395774  0.012696 28.553121
7211   0  1 51.395782  0.012696 31.408387
7212   0  1 51.395805  0.012696 34.263666
7213   0  1 51.395847  0.012697 37.118970
7214   0  1 51.395908  0.012700 39.974312
7215   0  1 51.396004  0.012705 42.829712
7216   0  1 51.396180  0.012714 45.685229
7217   0  1 51.396649  0.012725 48.541083
7218   0  1 51.398160  0.012737 51.397815
7219   0  1 51.396960  0.012745 54.251801
7220   0  1 51.397053  2.867009  0.000001
7221   0  1 51.397386  2.866945  2.854351
7222   0  1 51.398284  2.867094  5.708356
7223   0  1 51.396820  2.867486  8.565028
7224   0  1 51.396337  2.867696 11.420898
7225   0  1 51.396156  2.867783 14.276436
7226   0  1 51.396062  2.867829 17.131856
7227   0  1 51.396001  2.867858 19.987216
7228   0  1 51.395961  2.867878 22.842539
7229   0  1 51.395938  2.867889 25.697836
7230   0  1 51.395930  2.867893 28.553121
7231   0  1 51.395938  2.867889 31.408405
7232   0  1 51.395961  2.867878 34.263702
7233   0  1 51.396001  2.867858 37.119025
7234   0  1 51.396062  2.867829 39.974386
7235   0  1 51.396156  2.867783 42.829805
7236   0  1 51.396337  2.867696 45.685343
7237   0  1 51.396819  2.867486 48.541213
7238   0  1 51.398284  2.867094 51.397885
7239   0  1 51.397386  2.866945 54.251890
7240   0  1 51.398353  5.720842  0.000001
7241   0  1 51.398380  5.720816  2.854469
7242   0  1 51.399217  5.719978  5.707460
7243   0  1 51.397080  5.722116  8.564726
7244   0  1 51.396536  5.722659 11.420681
7245   0  1 51.396342  5.722853 14.276270
7246   0  1 51.396242  5.722954 17.131734
7247   0  1 51.396178  5.723017 19.987132
7248   0  1 51.396136  5.723059 22.842486
7249   0  1 51.396112  5.723084 25.697811
7250   0  1 51.396104  5.723092 28.553121
7251   0  1 51.396112  5.723084 31.408430
7252   0  1 51.396136  5.723059 34.263755
7253   0  1 51.396178  5.723017 37.119109
7254   0  1 51.396242  5.722954 39.974507
7255   0  1 51.396342  5.722853 42.829971
7256   0  1 51.396536  5.722659 45.685560
7257   0  1 51.397080  5.722116 48.541515
7258   0  1 51.399217  5.719978 51.398781
7259   0  1 51.398380  5.720816 54.251772
7260   0  1 51.396932  8.577465  0.000001
7261   0  1 51.397000  8.577390  2.854831
7262   0  1 51.397164  8.577159  5.709532
7263   0  1 51.396922  8.577257  8.564741
7264   0  1 51.396665  8.577695 11.420452
7265   0  1 51.396504  8.577954 14.276069
7266   0  1 51.396403  8.578106 17.131583
7267   0  1 51.396334  8.578207 19.987028
7268   0  1 51.396286  8.578276 22.842422
7269   0  1 51.396258  8.578316 25.697780
7270   0  1 51.396248  8.578329 28.553121
7271   0  1 51.396258  8.578316 31.408461
7272   0  1 51.396286  8.578276 34.263820
7273   0  1 51.396334  8.578207 37.119213
7274   0  1 51.396403  8.578106 39.974658
7275   0  1 51.396504  8.577954 42.830172
7276   0  1 51.396665  8.577695 45.685789
7277   0  1 51.396922  8.577257 48.541500
7278   0  1 51.397164  8.577159 51.396709
7279   0  1 51.397000  8.577390 54.251411
7280   0  1 51.396539 11.433263  0.000001
7281   0  1 51.396586 11.433209  2.855007
7282   0  1 51.396687 11.433064  5.710007
7283   0  1 51.396732 11.432921  8.565086
7284   0  1 51.396686 11.432972 11.420403
7285   0  1 51.396592 11.433159 14.275917
7286   0  1 51.396499 11.433329 17.131441
7287   0  1 51.396419 11.433463 19.986923
7288   0  1 51.396359 11.433561 22.842356
7289   0  1 51.396322 11.433621 25.697749
7290   0  1 51.396310 11.433641 28.553121
7291   0  1 51.396322 11.433621 31.408492
7292   0  1 51.396359 11.433561 34.263885
7293   0  1 51.396419 11.433463 37.119318
7294   0  1 51.396499 11.433329 39.974800
7295   0  1 51.396592 11.433159 42.830324
7296   0  1 51.396686 11.432972 45.685838
7297   0  1 51.396732 11.432921 48.541155
7298   0  1 51.396687 11.433064 51.396234
7299   0  1 51.396586 11.433209 54.251234
7300   0  1 51.396417 14.288784  0.000001
7301   0  1 51.396453 14.288748  2.855063
7302   0  1 51.396538 14.288650  5.710136
7303   0  1 51.396616 14.288528  8.565255
7304   0  1 51.396639 14.288469 11.420485
7305   0  1 51.396592 14.288525 14.275868
7306   0  1 51.396501 14.288658 17.131350
7307   0  1 51.396404 14.288802 19.986842
7308   0  1 51.396324 14.288924 22.842301
7309   0  1 51.396273 14.289003 25.697722
7310   0  1 51.396256 14.289031 28.553121
7311   0  1 51.396273 14.289003 31.408519
7312   0  1 51.396324 14.288924 34.263940
7313   0  1 51.396404 14.288802 37.119400
7314   0  1 51.396501 14.288658 39.974891
7315   0  1 51.396592 14.288525 42.830373
7316   0  1 51.396639 14.288469 45.685756
7317   0  1 51.396616 14.288528 48.540986
7318   0  1 51.396538 14.288650 51.396105
7319   0  1 51.396453 14.288748 54.251179
7320   0  1 51.396349 17.144247  0.000001
7321   0  1 51.396381 17.144224  2.855082
7322   0  1 51.396457 17.144161  5.710183
7323   0  1 51.396534 17.144078  8.565330
7324   0  1 51.396563 17.144015 11.420560
7325   0  1 51.396520 17.144014 14.275896
7326   0  1 51.396419 17.144090 17.131326
7327   0  1 51.396298 17.144213 19.986799
7328   0  1 51.396193 17.144338 22.842264
7329   0  1 51.396125 17.144428 25.697702
7330   0  1 51.396102 17.144460 28.553121
7331   0  1 51.396125 17.144428 31.408539
7332   0  1 51.396193 17.144338 34.263978
7333   0  1 51.396298 17.144213 37.119443
7334   0  1 51.396419 17.144090 39.974915
7335   0  1 51.396520 17.144014 42.830345
7336   0  1 51.396563 17.144015 45.685682
7337   0  1 51.396534 17.144078 48.540911
7338   0  1 51.396457 17.144161 51.396059
7339   0  1 51.396381 17.144224 54.251159
7340   0  1 51.396290 19.999701  0.000001
7341   0  1 51.396318 19.999688  2.855093
7342   0  1 51.396388 19.999651  5.710209
7343   0  1 51.396456 19.999602  8.565376
7344   0  1 51.396472 19.999560 11.420622
7345   0  1 51.396410 19.999547 14.275954
7346   0  1 51.396286 19.999581 17.131357
7347   0  1 51.396139 19.999660 19.986798
7348   0  1 51.396011 19.999760 22.842249
7349   0  1 51.395928 19.999841 25.697690
7350   0  1 51.395899 19.999872 28.553121
7351   0  1 51.395928 19.999841 31.408551
7352   0  1 51.396011 19.999760 34.263992
7353   0  1 51.396139 19.999660 37.119443
7354   0  1 51.396286 19.999581 39.974884
7355   0  1 51.396410 19.999547 42.830287
7356   0  1 51.396472 19.999560 45.685620
7357   0  1 51.396456 19.999602 48.540865
7358   0  1 51.396388 19.999651 51.396033
7359   0  1 51.396318 19.999688 54.251148
7360   0  1 51.396228 22.855153  0.000001
7361   0  1 51.396255 22.855147  2.855103
7362   0  1 51.396318 22.855132  5.710231
7363   0  1 51.396374 22.855110  8.565416
7364   0  1 51.396373 22.855088 11.420680
7365   0  1 51.396290 22.855076 14.276024
7366   0  1 51.396141 22.855083 17.131420
7367   0  1 51.395973 22.855112 19.986836
7368   0  1 51.395829 22.855159 22.842260
7369   0  1 51.395734 22.855206 25.697689
7370   0  1 51.395702 22.855226 28.553121
7371   0  1 51.395734 22.855206 31.408552
7372   0  1 51.395829 22.855159 34.263981
7373   0  1 51.395973 22.855112 37.119405
7374   0  1 51.396141 22.855083 39.974822
7375   0  1 51.396290 22.855076 42.830217
7376   0  1 51.396373 22.855088 45.685561
7377   0  1 51.396374 22.855110 48.540826
7378   0  1 51.396318 22.855132 51.396010
7379   0  1 51.396255 22.855147 54.251139
7380   0  1 51.396166 25.710602  0.000001
7381   0  1 51.396190 25.710602  2.855113
7382   0  1 51.396246 25.710601  5.710254
7383   0  1 51.396292 25.710599  8.565455
7384   0  1 51.396277 25.710592 11.420737
7385   0  1 51.396177 25.710580 14.276095
7386   0  1 51.396012 25.710563 17.131494
7387   0  1 51.395832 25.710545 19.986899
7388   0  1 51.395679 25.710530 22.842300
7389   0  1 51.395580 25.710522 25.697705
7390   0  1 51.395546 25.710521 28.553121
7391   0  1 51.395580 25.710522 31.408536
7392   0  1 51.395679 25.710530 34.263942
7393   0  1 51.395832 25.710545 37.119342
7394   0  1 51.396012 25.710563 39.974747
7395   0  1 51.396177 25.710580 42.830146
7396   0  1 51.396277 25.710592 45.685504
7397   0  1 51.396292 25.710599 48.540787
7398   0  1 51.396246 25.710601 51.395987
7399   0  1 51.396190 25.710602 54.251128
7400   0  1 51.396104 28.566045  0.000001
7401   0  1 51.396126 28.566048  2.855125
7402   0  1 51.396176 28.566058  5.710279
7403   0  1 51.396212 28.566068  8.565494
7404   0  1 51.396188 28.566070 11.420791
7405   0  1 51.396080 28.566053 14.276161
7406   0  1 51.395912 28.566012 17.131568
7407   0  1 51.395730 28.565949 19.986971
7408   0  1 51.395578 28.565876 22.842359
7409   0  1 51.395479 28.565813 25.697739
7410   0  1 51.395446 28.565788 28.553121
7411   0  1 51.395479 28.565813 31.408502
7412   0  1 51.395578 28.565876 34.263882
7413   0  1 51.395730 28.565949 37.119270
7414   0  1 51.395912 28.566012 39.974674
7415   0  1 51.396080 28.566053 42.830080
7416   0  1 51.396188 28.566070 45.685451
7417   0  1 51.396212 28.566068 48.540748
7418   0  1 51.396176 28.566058 51.395963
7419   0  1 51.396126 28.566048 54.251117
7420   0  1 51.396046 31.421478  0.000001
7421   0  1 51.396065 31.421485  2.855138
7422   0  1 51.396109 31.421502  5.710305
7423   0  1 51.396138 31.421520  8.565532
7424   0  1 51.396109 31.421523 11.420839
7425   0  1 51.396003 31.421497 14.276217
7426   0  1 51.395841 31.421432 17.131630
7427   0  1 51.395668 31.421329 19.987038
7428   0  1 51.395525 31.421209 22.842421
7429   0  1 51.395433 31.421109 25.697779
7430   0  1 51.395402 31.421069 28.553121
7431   0  1 51.395433 31.421109 31.408462
7432   0  1 51.395525 31.421209 34.263820
7433   0  1 51.395668 31.421329 37.119203
7434   0  1 51.395841 31.421432 39.974612
7435   0  1 51.396003 31.421497 42.830024
7436   0  1 51.396109 31.421523 45.685402
7437   0  1 51.396138 31.421520 48.540709
7438   0  1 51.396109 31.421502 51.395937
7439   0  1 51.396065 31.421485 54.251104
7440   0  1 51.395995 34.276900  0.000001
7441   0  1 51.396012 34.276909  2.855151
7442   0  1 51.396050 34.276932  5.710331
7443   0  1 51.396073 34.276955  8.565568
7444   0  1 51.396043 34.276959 11.420880
7445   0  1 51.395945 34.276921 14.276260
7446   0  1 51.395798 34.276831 17.131676
7447   0  1 51.395642 34.276695 19.987088
7448   0  1 51.395514 34.276546 22.842470
7449   0  1 51.395434 34.276430 25.697809
7450   0  1 51.395407 34.276386 28.553121
7451   0  1 51.395434 34.276430 31.408432
7452   0  1 51.395514 34.276546 34.263772
7453   0  1 51.395642 34.276695 37.119153
7454   0  1 51.395798 34.276831 39.974566
7455   0  1 51.395945 34.276921 42.829981
7456   0  1 51.396043 34.276959 45.685361
7457   0  1 51.396073 34.276955 48.540673
7458   0  1 51.396050 34.276932 51.395910
7459   0  1 51.396012 34.276909 54.251090
7460   0  1 51.395956 37.132311  0.000001
7461   0  1 51.395972 37.132322  2.855164
7462   0  1 51.396004 37.132351  5.710354
7463   0  1 51.396022 37.132381  8.565596
7464   0  1 51.395993 37.132384 11.420908
7465   0  1 51.395904 37.132333 14.276285
7466   0  1 51.395775 37.132217 17.131703
7467   0  1 51.395640 37.132056 19.987120
7468   0  1 51.395532 37.131896 22.842498
7469   0  1 51.395466 37.131780 25.697826
7470   0  1 51.395444 37.131738 28.553121
7471   0  1 51.395466 37.131780 31.408415
7472   0  1 51.395532 37.131896 34.263743
7473   0  1 51.395640 37.132056 37.119121
7474   0  1 51.395775 37.132217 39.974538
7475   0  1 51.395904 37.132333 42.829956
7476   0  1 51.395993 37.132384 45.685334
7477   0  1 51.396022 37.132381 48.540645
7478   0  1 51.396004 37.132351 51.395887
7479   0  1 51.395972 37.132322 54.251077
7480   0  1 51.395939 39.987710  0.000001
7481   0  1 51.395954 39.987726  2.855172
7482   0  1 51.395983 39.987766  5.710366
7483   0  1 51.395997 39.987808  8.565604
7484   0  1 51.395965 39.987809 11.420908
7485   0  1 51.395880 39.987735 14.276288
7486   0  1 51.395764 39.987587 17.131717
7487   0  1 51.395649 39.987409 19.987141
7488   0  1 51.395560 39.987252 22.842515
7489   0  1 51.395507 39.987147 25.697835
7490   0  1 51.395489 39.987111 28.553121
7491   0  1 51.395507 39.987147 31.408406
7492   0  1 51.395560 39.987252 34.263726
7493   0  1 51.395649 39.987409 37.119100
7494   0  1 51.395764 39.987587 39.974524
7495   0  1 51.395880 39.987735 42.829953
7496   0  1 51.395965 39.987809 45.685333
7497   0  1 51.395997 39.987808 48.540638
7498   0  1 51.395983 39.987766 51.395876
7499   0  1 51.395954 39.987726 54.251069
7500   0  1 51.395963 42.843113  0.000001
7501   0  1 51.395980 42.843137  2.855165
7502   0  1 51.396013 42.843199  5.710341
7503   0  1 51.396020 42.843261  8.565557
7504   0  1 51.395971 42.843246 11.420859
7505   0  1 51.395872 42.843115 14.276274
7506   0  1 51.395756 42.842922 17.131738
7507   0  1 51.395654 42.842740 19.987167
7508   0  1 51.395580 42.842599 22.842533
7509   0  1 51.395537 42.842512 25.697843
7510   0  1 51.395524 42.842482 28.553121
7511   0  1 51.395537 42.842512 31.408398
7512   0  1 51.395580 42.842599 34.263708
7513   0  1 51.395654 42.842740 37.119074
7514   0  1 51.395756 42.842922 39.974504
7515   0  1 51.395872 42.843115 42.829967
7516   0  1 51.395971 42.843246 45.685382
7517   0  1 51.396020 42.843261 48.540685
7518   0  1 51.396013 42.843199 51.395900
7519   0  1 51.395980 42.843137 54.251076
7520   0  1 51.396086 45.698576  0.000001
7521   0  1 51.396114 45.698615  2.855111
7522   0  1 51.396163 45.698717  5.710213
7523   0  1 51.396137 45.698795  8.565382
7524   0  1 51.396020 45.698671 11.420758
7525   0  1 51.395872 45.698418 14.276289
7526   0  1 51.395747 45.698200 17.131786
7527   0  1 51.395652 45.698037 19.987207
7528   0  1 51.395589 45.697924 22.842556
7529   0  1 51.395553 45.697858 25.697852
7530   0  1 51.395542 45.697836 28.553121
7531   0  1 51.395553 45.697858 31.408389
7532   0  1 51.395589 45.697924 34.263686
7533   0  1 51.395652 45.698037 37.119034
7534   0  1 51.395747 45.698200 39.974455
7535   0  1 51.395872 45.698418 42.829952
7536   0  1 51.396020 45.698671 45.685483
7537   0  1 51.396137 45.698795 48.540859
7538   0  1 51.396163 45.698717 51.396028
7539   0  1 51.396114 45.698615 54.251130
7540   0  1 51.396529 48.554325  0.000001
7541   0  1 51.396580 48.554385  2.854925
7542   0  1 51.396699 48.554576  5.709715
7543   0  1 51.396399 48.554421  8.564995
7544   0  1 51.396082 48.553925 11.420747
7545   0  1 51.395874 48.553615 14.276370
7546   0  1 51.395741 48.553427 17.131857
7547   0  1 51.395654 48.553303 19.987251
7548   0  1 51.395598 48.553223 22.842577
7549   0  1 51.395567 48.553177 25.697860
7550   0  1 51.395557 48.553162 28.553121
7551   0  1 51.395567 48.553177 31.408381
7552   0  1 51.395598 48.553223 34.263664
7553   0  1 51.395654 48.553303 37.118991
7554   0  1 51.395741 48.553427 39.974384
7555   0  1 51.395873 48.553615 42.829871
7556   0  1 51.396082 48.553925 45.685494
7557   0  1 51.396399 48.554421 48.541246
7558   0  1 51.396699 48.554576 51.396526
7559   0  1 51.396580 48.554385 54.251316
7560   0  1 51.398047 51.410913  0.000001
7561   0  1 51.398062 51.410928  2.854542
7562   0  1 51.398869 51.411735  5.707598
7563   0  1 51.396692 51.409558  8.564909
7564   0  1 51.396107 51.408973 11.420888
7565   0  1 51.395879 51.408745 14.276478
7566   0  1 51.395755 51.408621 17.131922
7567   0  1 51.395677 51.408543 19.987283
7568   0  1 51.395627 51.408493 22.842592
7569   0  1 51.395599 51.408465 25.697865
7570   0  1 51.395590 51.408456 28.553121
7571   0  1 51.395599 51.408465 31.408376
7572   0  1 51.395627 51.408493 34.263650
7573   0  1 51.395677 51.408543 37.118958
7574   0  1 51.395755 51.408621 39.974320
7575   0  1 51.395879 51.408745 42.829763
7576   0  1 51.396107 51.408973 45.685353
7577   0  1 51.396692 51.409558 48.541332
7578   0  1 51.398869 51.411735 51.398643
7579   0  1 51.398062 51.410928 54.251699
7580   0  1 51.396887 54.264728  0.000001
7581   0  1 51.397214 54.264784  2.854392
7582   0  1 51.398097 54.264617  5.708429
7583   0  1 51.396614 54.264197  8.565123
7584   0  1 51.396111 54.263961 11.421004
7585   0  1 51.395913 54.263852 14.276541
7586   0  1 51.395806 54.263792 17.131950
7587   0  1 51.395737 54.263754 19.987293
7588   0  1 51.395693 54.263731 22.842592
7589   0  1 51.395667 54.263718 25.697863
7590   0  1 51.395659 54.263714 28.553121
7591   0  1 51.395667 54.263718 31.408378
7592   0  1 51.395693 54.263731 34.263649
7593   0  1 51.395737 54.263754 37.118949
7594   0  1 51.395806 54.263792 39.974291
7595   0  1 51.395913 54.263852 42.829700
7596   0  1 51.396111 54.263960 45.685237
7597   0  1 51.396614 54.264197 48.541119
7598   0  1 51.398097 54.264617 51.397813
7599   0  1 51.397214 54.264784 54.251849
7600   0  1 54.212246  0.012807  0.000001
7601   0  1 54.257752  0.012821  2.848714
7602   0  1 54.252001  0.012816  5.709664
7603   0  1 54.251320  0.012810  8.565826
7604   0  1 54.251201  0.012804 11.421289
7605   0  1 54.251142  0.012798 14.276663
7606   0  1 54.251102  0.012795 17.132001
7607   0  1 54.251075  0.012793 19.987311
7608   0  1 54.251056  0.012792 22.842596
7609   0  1 54.251045  0.012791 25.697863
7610   0  1 54.251042  0.012791 28.553121
7611   0  1 54.251045  0.012791 31.408378
7612   0  1 54.251056  0.012792 34.263645
7613   0  1 54.251075  0.012793 37.118930
7614   0  1 54.251102  0.012795 39.974240
7615   0  1 54.251142  0.012798 42.829578
7616   0  1 54.251201  0.012804 45.684952
7617   0  1 54.251320  0.012810 48.540416
7618   0  1 54.252001  0.012816 51.396577
7619   0  1 54.257752  0.012821 54.257527
7620   0  1 54.257856  2.861340  0.000001
7621   0  1 54.267121  2.852074  2.839419
7622   0  1 54.252162  2.867033  5.709301
7623   0  1 54.251480  2.867716  8.565655
7624   0  1 54.251343  2.867853 11.421178
7625   0  1 54.251275  2.867920 14.276590
7626   0  1 54.251235  2.867960 17.131951
7627   0  1 54.251208  2.867987 19.987277
7628   0  1 54.251190  2.868005 22.842575
7629   0  1 54.251180  2.868016 25.697853
7630   0  1 54.251176  2.868019 28.553121
7631   0  1 54.251180  2.868016 31.408388
7632   0  1 54.251190  2.868005 34.263667
7633   0  1 54.251208  2.867987 37.118965
7634   0  1 54.251235  2.867960 39.974290
7635   0  1 54.251275  2.867920 42.829651
7636   0  1 54.251343  2.867853 45.685063
7637   0  1 54.251480  2.867716 48.540586
7638   0  1 54.252162  2.867033 51.396940
7639   0  1 54.267121  2.852074 54.266822
7640   0  1 54.252186  5.722142  0.000001
7641   0  1 54.252250  5.721809  2.854351
7642   0  1 54.252101  5.720912  5.708356
7643   0  1 54.251709  5.722376  8.565028
7644   0  1 54.251500  5.722859 11.420898
7645   0  1 54.251412  5.723039 14.276436
7646   0  1 54.251367  5.723134 17.131856
7647   0  1 54.251337  5.723194 19.987217
7648   0  1 54.251317  5.723234 22.842539
7649   0  1 54.251306  5.723258 25.697836
7650   0  1 54.251302  5.723265 28.553121
7651   0  1 54.251306  5.723258 31.408405
7652   0  1 54.251317  5.723234 34.263702
7653   0  1 54.251337  5.723194 37.119025
7654   0  1 54.251367  5.723134 39.974386
7655   0  1 54.251412  5.723039 42.829805
7656   0  1 54.251500  5.722858 45.685343
7657   0  1 54.251709  5.722376 48.541213
7658   0  1 54.252101  5.720912 51.397885
7659   0  1 54.252250  5.721809 54.251890
7660   0  1 54.251577  8.578189  0.000001
7661   0  1 54.251635  8.578054  2.855005
7662   0  1 54.251776  8.577485  5.709762
7663   0  1 54.251714  8.577438  8.564907
7664   0  1 54.251593  8.577901 11.420645
7665   0  1 54.251515  8.578177 14.276253
7666   0  1 54.251465  8.578334 17.131735
7667   0  1 54.251430  8.578436 19.987140
7668   0  1 54.251406  8.578503 22.842494
7669   0  1 54.251391  8.578543 25.697816
7670   0  1 54.251386  8.578556 28.553121
7671   0  1 54.251391  8.578543 31.408426
7672   0  1 54.251406  8.578503 34.263747
7673   0  1 54.251430  8.578436 37.119101
7674   0  1 54.251465  8.578334 39.974506
7675   0  1 54.251515  8.578177 42.829988
7676   0  1 54.251593  8.577901 45.685596
7677   0  1 54.251714  8.577438 48.541334
7678   0  1 54.251776  8.577485 51.396479
7679   0  1 54.251635  8.578054 54.251236
7680   0  1 54.251510 11.433589  0.000001
7681   0  1 54.251544 11.433516  2.855110
7682   0  1 54.251610 11.433295  5.710181
7683   0  1 54.251635 11.433120  8.565286
7684   0  1 54.251611 11.433184 11.420616
7685   0  1 54.251560 11.433401 14.276129
7686   0  1 54.251508 11.433587 17.131625
7687   0  1 54.251464 11.433726 19.987063
7688   0  1 54.251431 11.433823 22.842447
7689   0  1 54.251411 11.433881 25.697794
7690   0  1 54.251404 11.433900 28.553121
7691   0  1 54.251411 11.433881 31.408447
7692   0  1 54.251431 11.433823 34.263794
7693   0  1 54.251464 11.433726 37.119178
7694   0  1 54.251508 11.433587 39.974616
7695   0  1 54.251560 11.433401 42.830112
7696   0  1 54.251611 11.433184 45.685625
7697   0  1 54.251635 11.433120 48.540955
7698   0  1 54.251610 11.433295 51.396060
7699   0  1 54.251544 11.433516 54.251131
7700   0  1 54.251478 14.288957  0.000001
7701   0  1 54.251498 14.288920  2.855147
7702   0  1 54.251541 14.288821  5.710299
7703   0  1 54.251575 14.288711  8.565475
7704   0  1 54.251577 14.288678 11.420733
7705   0  1 54.251543 14.288764 14.276114
7706   0  1 54.251490 14.288917 17.131564
7707   0  1 54.251436 14.289065 19.987004
7708   0  1 54.251391 14.289183 22.842407
7709   0  1 54.251363 14.289257 25.697774
7710   0  1 54.251353 14.289282 28.553121
7711   0  1 54.251363 14.289257 31.408467
7712   0  1 54.251391 14.289183 34.263834
7713   0  1 54.251436 14.289065 37.119237
7714   0  1 54.251490 14.288917 39.974678
7715   0  1 54.251543 14.288764 42.830128
7716   0  1 54.251577 14.288678 45.685508
7717   0  1 54.251575 14.288711 48.540766
7718   0  1 54.251541 14.288821 51.395942
7719   0  1 54.251498 14.288920 54.251095
7720   0  1 54.251441 17.144347  0.000001
7721   0  1 54.251456 17.144329  2.855160
7722   0  1 54.251491 17.144280  5.710339
7723   0  1 54.251519 17.144222  8.565555
7724   0  1 54.251518 17.144191 11.420825
7725   0  1 54.251483 17.144222 14.276163
7726   0  1 54.251424 17.144318 17.131560
7727   0  1 54.251359 17.144444 19.986977
7728   0  1 54.251303 17.144561 22.842380
7729   0  1 54.251267 17.144642 25.697759
7730   0  1 54.251255 17.144670 28.553121
7731   0  1 54.251267 17.144642 31.408483
7732   0  1 54.251303 17.144561 34.263861
7733   0  1 54.251359 17.144444 37.119264
7734   0  1 54.251424 17.144318 39.974681
7735   0  1 54.251483 17.144222 42.830078
7736   0  1 54.251518 17.144191 45.685416
7737   0  1 54.251519 17.144222 48.540686
7738   0  1 54.251491 17.144280 51.395902
7739   0  1 54.251456 17.144329 54.251082
7740   0  1 54.251395 19.999757  0.000001
7741   0  1 54.251408 19.999749  2.855165
7742   0  1 54.251436 19.999727  5.710357
7743   0  1 54.251456 19.999700  8.565595
7744   0  1 54.251447 19.999685 11.420885
7745   0  1 54.251402 19.999700 14.276222
7746   0  1 54.251332 19.999755 17.131592
7747   0  1 54.251257 19.999842 19.986981
7748   0  1 54.251193 19.999936 22.842370
7749   0  1 54.251152 20.000007 25.697749
7750   0  1 54.251137 20.000033 28.553121
7751   0  1 54.251152 20.000007 31.408492
7752   0  1 54.251193 19.999936 34.263871
7753   0  1 54.251257 19.999842 37.119260
7754   0  1 54.251332 19.999755 39.974649
7755   0  1 54.251402 19.999700 42.830020
7756   0  1 54.251447 19.999685 45.685356
7757   0  1 54.251456 19.999700 48.540646
7758   0  1 54.251436 19.999727 51.395884
7759   0  1 54.251408 19.999749 54.251076
7760   0  1 54.251340 22.855181  0.000001
7761   0  1 54.251351 22.855178  2.855170
7762   0  1 54.251375 22.855170  5.710371
7763   0  1 54.251388 22.855161  8.565623
7764   0  1 54.251369 22.855157 11.420929
7765   0  1 54.251314 22.855166 14.276274
7766   0  1 54.251236 22.855193 17.131637
7767   0  1 54.251154 22.855239 19.987005
7768   0  1 54.251086 22.855294 22.842376
7769   0  1 54.251041 22.855339 25.697748
7770   0  1 54.251026 22.855357 28.553121
7771   0  1 54.251041 22.855339 31.408493
7772   0  1 54.251086 22.855294 34.263865
7773   0  1 54.251154 22.855239 37.119236
7774   0  1 54.251236 22.855193 39.974605
7775   0  1 54.251314 22.855166 42.829968
7776   0  1 54.251369 22.855157 45.685312
7777   0  1 54.251388 22.855161 48.540618
7778   0  1 54.251375 22.855170 51.395871
7779   0  1 54.251351 22.855178 54.251071
7780   0  1 54.251280 25.710611  0.000001
7781   0  1 54.251290 25.710611  2.855175
7782   0  1 54.251310 25.710611  5.710383
7783   0  1 54.251317 25.710611  8.565646
7784   0  1 54.251291 25.710611 11.420964
7785   0  1 54.251230 25.710612 14.276317
7786   0  1 54.251147 25.710615 17.131680
7787   0  1 54.251063 25.710622 19.987039
7788   0  1 54.250994 25.710632 22.842395
7789   0  1 54.250950 25.710642 25.697755
7790   0  1 54.250935 25.710646 28.553121
7791   0  1 54.250950 25.710642 31.408486
7792   0  1 54.250994 25.710632 34.263846
7793   0  1 54.251063 25.710622 37.119202
7794   0  1 54.251147 25.710615 39.974561
7795   0  1 54.251230 25.710612 42.829924
7796   0  1 54.251291 25.710611 45.685277
7797   0  1 54.251317 25.710611 48.540595
7798   0  1 54.251310 25.710611 51.395858
7799   0  1 54.251290 25.710611 54.251066
7800   0  1 54.251217 28.566041  0.000001
7801   0  1 54.251226 28.566042  2.855182
7802   0  1 54.251243 28.566047  5.710397
7803   0  1 54.251246 28.566050  8.565667
7804   0  1 54.251218 28.566049 11.420993
7805   0  1 54.251155 28.566039 14.276352
7806   0  1 54.251073 28.566018 17.131717
7807   0  1 54.250991 28.565989 19.987074
7808   0  1 54.250925 28.565956 22.842422
7809   0  1 54.250883 28.565929 25.697770
7810   0  1 54.250869 28.565918 28.553121
7811   0  1 54.250883 28.565929 31.408472
7812   0  1 54.250925 28.565956 34.263819
7813   0  1 54.250991 28.565989 37.119167
7814   0  1 54.251073 28.566018 39.974524
7815   0  1 54.251155 28.566039 42.829890
7816   0  1 54.251218 28.566049 45.685249
7817   0  1 54.251246 28.566050 48.540574
7818   0  1 54.251243 28.566047 51.395845
7819   0  1 54.251226 28.566042 54.251060
7820   0  1 54.251156 31.421465  0.000001
7821   0  1 54.251163 31.421468  2.855189
7822   0  1 54.251177 31.421475  5.710410
7823   0  1 54.251179 31.421481  8.565685
7824   0  1 54.251150 31.421476 11.421014
7825   0  1 54.251090 31.421454 14.276375
7826   0  1 54.251013 31.421410 17.131743
7827   0  1 54.250937 31.421346 19.987102
7828   0  1 54.250877 31.421275 22.842448
7829   0  1 54.250839 31.421218 25.697787
7830   0  1 54.250826 31.421195 28.553121
7831   0  1 54.250839 31.421218 31.408455
7832   0  1 54.250877 31.421275 34.263793
7833   0  1 54.250937 31.421346 37.119139
7834   0  1 54.251013 31.421410 39.974498
7835   0  1 54.251090 31.421454 42.829866
7836   0  1 54.251150 31.421476 45.685228
7837   0  1 54.251179 31.421481 48.540556
7838   0  1 54.251177 31.421475 51.395831
7839   0  1 54.251163 31.421468 54.251053
7840   0  1 54.251099 34.276880  0.000001
7841   0  1 54.251105 34.276885  2.855197
7842   0  1 54.251117 34.276896  5.710423
7843   0  1 54.251117 34.276904  8.565700
7844   0  1 54.251090 34.276898 11.421026
7845   0  1 54.251036 34.276864 14.276385
7846   0  1 54.250967 34.276797 17.131755
7847   0  1 54.250900 34.276702 19.987119
7848   0  1 54.250847 34.276600 22.842469
7849   0  1 54.250814 34.276522 25.697801
7850   0  1 54.250804 34.276493 28.553121
7851   0  1 54.250814 34.276522 31.408441
7852   0  1 54.250847 34.276600 34.263772
7853   0  1 54.250900 34.276702 37.119122
7854   0  1 54.250967 34.276797 39.974486
7855   0  1 54.251036 34.276864 42.829857
7856   0  1 54.251090 34.276898 45.685216
7857   0  1 54.251117 34.276904 48.540542
7858   0  1 54.251117 34.276896 51.395818
7859   0  1 54.251105 34.276885 54.251045
7860   0  1 54.251050 37.132282  0.000001
7861   0  1 54.251056 37.132289  2.855204
7862   0  1 54.251066 37.132308  5.710433
7863   0  1 54.251065 37.132326  8.565706
7864   0  1 54.251040 37.132322 11.421023
7865   0  1 54.250993 37.132277 14.276377
7866   0  1 54.250932 37.132184 17.131752
7867   0  1 54.250874 37.132060 19.987128
7868   0  1 54.250830 37.131937 22.842483
7869   0  1 54.250803 37.131848 25.697811
7870   0  1 54.250795 37.131817 28.553121
7871   0  1 54.250803 37.131848 31.408430
7872   0  1 54.250830 37.131937 34.263758
7873   0  1 54.250874 37.132060 37.119114
7874   0  1 54.250932 37.132184 39.974489
7875   0  1 54.250993 37.132277 42.829864
7876   0  1 54.251040 37.132322 45.685218
7877   0  1 54.251065 37.132326 48.540535
7878   0  1 54.251066 37.132308 51.395808
7879   0  1 54.251056 37.132289 54.251037
7880   0  1 54.251017 39.987663  0.000001
7881   0  1 54.251022 39.987678  2.855208
7882   0  1 54.251032 39.987715  5.710434
7883   0  1 54.251030 39.987754  8.565692
7884   0  1 54.251006 39.987758 11.420993
7885   0  1 54.250962 39.987695 14.276348
7886   0  1 54.250907 39.987567 17.131742
7887   0  1 54.250857 39.987415 19.987136
7888   0  1 54.250820 39.987282 22.842497
7889   0  1 54.250799 39.987194 25.697820
7890   0  1 54.250792 39.987164 28.553121
7891   0  1 54.250799 39.987194 31.408421
7892   0  1 54.250820 39.987282 34.263744
7893   0  1 54.250857 39.987415 37.119106
7894   0  1 54.250907 39.987567 39.974499
7895   0  1 54.250962 39.987695 42.829893
7896   0  1 54.251006 39.987758 45.685248
7897   0  1 54.251030 39.987754 48.540550
7898   0  1 54.251032 39.987715 51.395807
7899   0  1 54.251022 39.987678 54.251033
7900   0  1 54.251007 42.843020  0.000001
7901   0  1 54.251016 42.843051  2.855201
7902   0  1 54.251030 42.843133  5.710405
7903   0  1 54.251027 42.843216  8.565626
7904   0  1 54.250997 42.843218 11.420915
7905   0  1 54.250946 42.843099 14.276307
7906   0  1 54.250890 42.842920 17.131747
7907   0  1 54.250845 42.842754 19.987158
7908   0  1 54.250813 42.842628 22.842517
7909   0  1 54.250796 42.842550 25.697831
7910   0  1 54.250790 42.842524 28.553121
7911   0  1 54.250796 42.842550 31.408410
7912   0  1 54.250813 42.842628 34.263724
7913   0  1 54.250845 42.842754 37.119083
7914   0  1 54.250890 42.842920 39.974495
7915   0  1 54.250946 42.843099 42.829934
7916   0  1 54.250997 42.843218 45.685326
7917   0  1 54.251026 42.843216 48.540615
7918   0  1 54.251030 42.843133 51.395836
7919   0  1 54.251016 42.843051 54.251040
7920   0  1 54.251037 45.698356  0.000001
7921   0  1 54.251059 45.698422  2.855166
7922   0  1 54.251094 45.698622  5.710288
7923   0  1 54.251080 45.698768  8.565435
7924   0  1 54.251020 45.698671 11.420791
7925   0  1 54.250944 45.698425 14.276309
7926   0  1 54.250883 45.698217 17.131791
7927   0  1 54.250839 45.698066 19.987199
7928   0  1 54.250811 45.697963 22.842543
7929   0  1 54.250796 45.697902 25.697843
7930   0  1 54.250792 45.697882 28.553121
7931   0  1 54.250796 45.697902 31.408398
7932   0  1 54.250811 45.697963 34.263698
7933   0  1 54.250839 45.698066 37.119042
7934   0  1 54.250883 45.698217 39.974450
7935   0  1 54.250944 45.698425 42.829932
7936   0  1 54.251020 45.698671 45.685450
7937   0  1 54.251080 45.698768 48.540806
7938   0  1 54.251094 45.698622 51.395953
7939   0  1 54.251059 45.698422 54.251075
7940   0  1 54.251153 48.553728  0.000001
7941   0  1 54.251201 48.553856  2.855056
7942   0  1 54.251314 48.554406  5.709858
7943   0  1 54.251215 48.554426  8.565037
7944   0  1 54.251059 48.553935 11.420793
7945   0  1 54.250956 48.553636 14.276402
7946   0  1 54.250891 48.553461 17.131870
7947   0  1 54.250849 48.553349 19.987249
7948   0  1 54.250824 48.553276 22.842571
7949   0  1 54.250810 48.553234 25.697855
7950   0  1 54.250806 48.553220 28.553121
7951   0  1 54.250810 48.553234 31.408386
7952   0  1 54.250824 48.553276 34.263671
7953   0  1 54.250849 48.553349 37.118992
7954   0  1 54.250891 48.553461 39.974371
7955   0  1 54.250956 48.553636 42.829839
7956   0  1 54.251059 48.553935 45.685448
7957   0  1 54.251215 48.554425 48.541204
7958   0  1 54.251314 48.554406 51.396384
7959   0  1 54.251201 48.553856 54.251185
7960   0  1 54.251862 51.409753  0.000001
7961   0  1 54.251918 51.410080  2.854392
7962   0  1 54.251751 51.410963  5.708429
7963   0  1 54.251331 51.409480  8.565123
7964   0  1 54.251095 51.408977 11.421004
7965   0  1 54.250986 51.408779 14.276541
7966   0  1 54.250926 51.408672 17.131950
7967   0  1 54.250888 51.408603 19.987293
7968   0  1 54.250865 51.408559 22.842592
7969   0  1 54.250852 51.408533 25.697863
7970   0  1 54.250848 51.408525 28.553121
7971   0  1 54.250852 51.408533 31.408378
7972   0  1 54.250865 51.408559 34.263649
7973   0  1 54.250888 51.408603 37.118949
7974   0  1 54.250926 51.408672 39.974291
7975   0  1 54.250986 51.408779 42.829700
7976   0  1 54.251095 51.408977 45.685237
7977   0  1 54.251331 51.409480 48.541119
7978   0  1 54.251751 51.410963 51.397813
7979   0  1 54.251918 51.410080 54.251849
7980   0  1 54.257670 54.270536  0.000001
7981   0  1 54.266928 54.279794  2.839459
7982   0  1 54.251972 54.264838  5.709341
7983   0  1 54.251276 54.264142  8.565704
7984   0  1 54.251124 54.263990 11.421233
7985   0  1 54.251044 54.263910 14.276644
7986   0  1 54.250996 54.263862 17.132000
7987   0  1 54.250964 54.263830 19.987316
7988   0  1 54.250943 54.263809 22.842602
7989   0  1 54.250931 54.263797 25.697867
7990   0  1 54.250927 54.263793 28.553121
7991   0  1 54.250931 54.263797 31.408375
7992   0  1 54.250943 54.263809 34.263640
7993   0  1 54.250964 54.263830 37.118926
7994   0  1 54.250996 54.263862 39.974242
7995   0  1 54.251044 54.263910 42.829597
7996   0  1 54.251124 54.263990 45.685008
7997   0  1 54.251276 54.264142 48.540537
7998   0  1 54.251972 54.264838 51.396901
7999   0  1 54.266928 54.279794 54.266782
8000   0  1  1.386460  1.399326  1.386480
8001   0  1  1.429184  1.442050  4.282831
8002   0  1  1.427716  1.440582  7.138479
8003   0  1  1.427627  1.440493  9.993694
8004   0  1  1.427658  1.440524 12.849026
8005   0  1  1.427683  1.440549 15.704360
8006   0  1  1.427701  1.440567 18.559675
8007   0  1  1.427713  1.440579 21.414966
8008   0  1  1.427721  1.440587 24.270237
8009   0  1  1.427725  1.440591 27.125494
8010   0  1  1.427725  1.440591 29.980747
8011   0  1  1.427721  1.440587 32.836005
8012   0  1  1.427713  1.440579 35.691276
8013   0  1  1.427701  1.440567 38.546567
8014   0  1  1.427683  1.440549 41.401881
8015   0  1  1.427658  1.440524 44.257215
8016   0  1  1.427627  1.440493 47.112548
8017   0  1  1.427716  1.440582 49.967762
8018   0  1  1.429184  1.442050 52.823410
8019   0  1  1.386460  1.399326 55.719761
8020   0  1  1.429259  4.295510  1.429180
8021   0  1  1.427293  4.291964  4.279267
8022   0  1  1.427464  4.294854  7.137314
8023   0  1  1.427666  4.295453  9.993371
8024   0  1  1.427740  4.295628 12.848904
8025   0  1  1.427778  4.295715 15.704305
8026   0  1  1.427801  4.295771 18.559648
8027   0  1  1.427815  4.295809 21.414953
8028   0  1  1.427824  4.295832 24.270231
8029   0  1  1.427828  4.295844 27.125493
8030   0  1  1.427828  4.295844 29.980749
8031   0  1  1.427824  4.295832 32.836010
8032   0  1  1.427815  4.295809 35.691288
8033   0  1  1.427801  4.295771 38.546594
8034   0  1  1.427778  4.295715 41.401937
8035   0  1  1.427740  4.295628 44.257337
8036   0  1  1.427666  4.295453 47.112870
8037   0  1  1.427464  4.294854 49.968927
8038   0  1  1.427293  4.291964 52.826974
8039   0  1  1.429259  4.295510 55.677061
8040   0  1  1.427842  7.151008  1.427699
8041   0  1  1.427511  7.149864  4.282121
8042   0  1  1.427583  7.149525  7.136926
8043   0  1  1.427719  7.150340  9.992992
8044   0  1  1.427797  7.150712 12.848704
8045   0  1  1.427840  7.150891 15.704199
8046   0  1  1.427866  7.150997 18.559591
8047   0  1  1.427882  7.151066 21.414923
8048   0  1  1.427891  7.151110 24.270217
8049   0  1  1.427895  7.151132 27.125489
8050   0  1  1.427895  7.151132 29.980753
8051   0  1  1.427891  7.151110 32.836024
8052   0  1  1.427882  7.151066 35.691318
8053   0  1  1.427866  7.150997 38.546651
8054   0  1  1.427840  7.150891 41.402043
8055   0  1  1.427797  7.150712 44.257538
8056   0  1  1.427719  7.150340 47.113249
8057   0  1  1.427583  7.149525 49.969316
8058   0  1  1.427511  7.149864 52.824120
8059   0  1  1.427842  7.151008 55.678542
8060   0  1  1.427775 10.006113  1.427591
8061   0  1  1.427730 10.005811  4.282670
8062   0  1  1.427732 10.005485  7.137670
8063   0  1  1.427774 10.005531  9.992956
8064   0  1  1.427829 10.005854 12.848553
8065   0  1  1.427869 10.006093 15.704084
8066   0  1  1.427895 10.006251 18.559519
8067   0  1  1.427911 10.006357 21.414883
8068   0  1  1.427919 10.006424 24.270197
8069   0  1  1.427923 10.006457 27.125483
8070   0  1  1.427923 10.006457 29.980759
8071   0  1  1.427919 10.006424 32.836044
8072   0  1  1.427911 10.006357 35.691359
8073   0  1  1.427895 10.006251 38.546722
8074   0  1  1.427869 10.006093 41.402157
8075   0  1  1.427829 10.005854 44.257688
8076   0  1  1.427774 10.005531 47.113285
8077   0  1  1.427732 10.005485 49.968572
8078   0  1  1.427730 10.005811 52.823571
8079   0  1  1.427775 10.006113 55.678651
8080   0  1  1.427800 12.861388  1.427600
8081   0  1  1.427792 12.861283  4.282789
8082   0  1  1.427793 12.861132  7.137957
8083   0  1  1.427809 12.861061  9.993178
8084   0  1  1.427839 12.861164 12.848550
8085   0  1  1.427871 12.861361 15.704017
8086   0  1  1.427895 12.861540 18.559458
8087   0  1  1.427910 12.861675 21.414842
8088   0  1  1.427918 12.861765 24.270175
8089   0  1  1.427922 12.861810 27.125476
8090   0  1  1.427922 12.861810 29.980765
8091   0  1  1.427918 12.861765 32.836066
8092   0  1  1.427910 12.861675 35.691400
8093   0  1  1.427895 12.861540 38.546784
8094   0  1  1.427871 12.861361 41.402224
8095   0  1  1.427839 12.861164 44.257691
8096   0  1  1.427809 12.861061 47.113063
8097   0  1  1.427793 12.861132 49.968284
8098   0  1  1.427792 12.861283 52.823452
8099   0  1  1.427800 12.861388 55.678641
8100   0  1  1.427796 15.716721  1.427605
8101   0  1  1.427794 15.716678  4.282820
8102   0  1  1.427796 15.716612  7.138049
8103   0  1  1.427807 15.716567  9.993308
8104   0  1  1.427827 15.716597 12.848628
8105   0  1  1.427852 15.716714 15.704016
8106   0  1  1.427875 15.716870 18.559427
8107   0  1  1.427891 15.717013 21.414811
8108   0  1  1.427900 15.717118 24.270156
8109   0  1  1.427903 15.717172 27.125469
8110   0  1  1.427903 15.717172 29.980772
8111   0  1  1.427900 15.717118 32.836086
8112   0  1  1.427891 15.717013 35.691430
8113   0  1  1.427875 15.716870 38.546815
8114   0  1  1.427852 15.716714 41.402225
8115   0  1  1.427827 15.716597 44.257613
8116   0  1  1.427807 15.716567 47.112934
8117   0  1  1.427796 15.716612 49.968193
8118   0  1  1.427794 15.716678 52.823421
8119   0  1  1.427796 15.716721 55.678636
8120   0  1  1.427767 18.572090  1.427605
8121   0  1  1.427765 18.572071  4.282825
8122   0  1  1.427767 18.572043  7.138075
8123   0  1  1.427776 18.572025  9.993362
8124   0  1  1.427794 18.572045 12.848687
8125   0  1  1.427819 18.572118 15.704046
8126   0  1  1.427843 18.572235 18.559424
8127   0  1  1.427861 18.572363 21.414795
8128   0  1  1.427872 18.572467 24.270141
8129   0  1  1.427877 18.572524 27.125464
8130   0  1  1.427877 18.572524 29.980777
8131   0  1  1.427872 18.572467 32.836100
8132   0  1  1.427861 18.572363 35.691446
8133   0  1  1.427843 18.572235 38.546817
8134   0  1  1.427819 18.572118 41.402195
8135   0  1  1.427794 18.572045 44.257555
8136   0  1  1.427776 18.572025 47.112879
8137   0  1  1.427767 18.572043 49.968166
8138   0  1  1.427765 18.572071 52.823416
8139   0  1  1.427767 18.572090 55.678637
8140   0  1  1.427722 21.427483  1.427603
8141   0  1  1.427719 21.427474  4.282822
8142   0  1  1.427719 21.427463  7.138079
8143   0  1  1.427727 21.427459  9.993381
8144   0  1  1.427747 21.427478 12.848717
8145   0  1  1.427774 21.427529 15.704072
8146   0  1  1.427803 21.427613 18.559433
8147   0  1  1.427826 21.427713 21.414789
8148   0  1  1.427841 21.427803 24.270131
8149   0  1  1.427848 21.427855 27.125459
8150   0  1  1.427848 21.427855 29.980782
8151   0  1  1.427841 21.427803 32.836110
8152   0  1  1.427826 21.427713 35.691452
8153   0  1  1.427803 21.427613 38.546808
8154   0  1  1.427774 21.427529 41.402169
8155   0  1  1.427747 21.427478 44.257525
8156   0  1  1.427727 21.427459 47.112861
8157   0  1  1.427719 21.427463 49.968162
8158   0  1  1.427719 21.427474 52.823420
8159   0  1  1.427722 21.427483 55.678639
8160   0  1  1.427667 24.282893  1.427600
8161   0  1  1.427662 24.282889  4.282816
8162   0  1  1.427660 24.282883  7.138075
8163   0  1  1.427668 24.282884  9.993383
8164   0  1  1.427690 24.282899 12.848727
8165   0  1  1.427722 24.282933 15.704084
8166   0  1  1.427756 24.282988 18.559438
8167   0  1  1.427785 24.283056 21.414784
8168   0  1  1.427805 24.283121 24.270122
8169   0  1  1.427815 24.283161 27.125455
8170   0  1  1.427815 24.283161 29.980786
8171   0  1  1.427805 24.283121 32.836119
8172   0  1  1.427785 24.283056 35.691457
8173   0  1  1.427756 24.282988 38.546803
8174   0  1  1.427722 24.282933 41.402158
8175   0  1  1.427690 24.282899 44.257515
8176   0  1  1.427668 24.282884 47.112858
8177   0  1  1.427660 24.282883 49.968166
8178   0  1  1.427662 24.282889 52.823425
8179   0  1  1.427667 24.282893 55.678641
8180   0  1  1.427606 27.138313  1.427598
8181   0  1  1.427600 27.138311  4.282810
8182   0  1  1.427596 27.138308  7.138068
8183   0  1  1.427604 27.138308  9.993378
8184   0  1  1.427628 27.138315 12.848724
8185   0  1  1.427664 27.138332 15.704081
8186   0  1  1.427703 27.138359 18.559432
8187   0  1  1.427738 27.138393 21.414774
8188   0  1  1.427762 27.138426 24.270112
8189   0  1  1.427774 27.138446 27.125451
8190   0  1  1.427774 27.138446 29.980791
8191   0  1  1.427762 27.138426 32.836130
8192   0  1  1.427738 27.138393 35.691467
8193   0  1  1.427703 27.138359 38.546809
8194   0  1  1.427664 27.138332 41.402160
8195   0  1  1.427628 27.138315 44.257518
8196   0  1  1.427604 27.138308 47.112864
8197   0  1  1.427596 27.138308 49.968173
8198   0  1  1.427600 27.138311 52.823431
8199   0  1  1.427606 27.138313 55.678643
8200   0  1  1.427543 29.993738  1.427596
8201   0  1  1.427535 29.993737  4.282805
8202   0  1  1.427529 29.993736  7.138060
8203   0  1  1.427536 29.993735  9.993367
8204   0  1  1.427561 29.993734 12.848710
8205   0  1  1.427600 29.993733 15.704066
8206   0  1  1.427643 29.993731 18.559417
8207   0  1  1.427681 29.993728 21.414759
8208   0  1  1.427709 29.993725 24.270101
8209   0  1  1.427724 29.993722 27.125446
8210   0  1  1.427724 29.993722 29.980795
8211   0  1  1.427709 29.993725 32.836141
8212   0  1  1.427681 29.993728 35.691482
8213   0  1  1.427643 29.993731 38.546825
8214   0  1  1.427600 29.993733 41.402175
8215   0  1  1.427561 29.993734 44.257531
8216   0  1  1.427536 29.993735 47.112875
8217   0  1  1.427529 29.993736 49.968181
8218   0  1  1.427535 29.993737 52.823436
8219   0  1  1.427543 29.993738 55.678645
8220   0  1  1.427481 32.849163  1.427595
8221   0  1  1.427472 32.849165  4.282801
8222   0  1  1.427463 32.849168  7.138050
8223   0  1  1.427467 32.849168  9.993350
8224   0  1  1.427491 32.849161 12.848687
8225   0  1  1.427529 32.849144 15.704040
8226   0  1  1.427574 32.849112 18.559393
8227   0  1  1.427615 32.849071 21.414743
8228   0  1  1.427645 32.849030 24.270092
8229   0  1  1.427661 32.849004 27.125444
8230   0  1  1.427661 32.849004 29.980797
8231   0  1  1.427645 32.849030 32.836149
8232   0  1  1.427615 32.849071 35.691498
8233   0  1  1.427574 32.849112 38.546848
8234   0  1  1.427529 32.849144 41.402201
8235   0  1  1.427491 32.849161 44.257554
8236   0  1  1.427467 32.849168 47.112891
8237   0  1  1.427463 32.849168 49.968191
8238   0  1  1.427472 32.849165 52.823440
8239   0  1  1.427481 32.849163 55.678646
8240   0  1  1.427424 35.704583  1.427594
8241   0  1  1.427412 35.704591  4.282797
8242   0  1  1.427400 35.704604  7.138039
8243   0  1  1.427400 35.704612  9.993327
8244   0  1  1.427419 35.704604 12.848654
8245   0  1  1.427454 35.704570 15.704004
8246   0  1  1.427497 35.704507 18.559365
8247   0  1  1.427538 35.704427 21.414730
8248   0  1  1.427569 35.704353 24.270090
8249   0  1  1.427586 35.704308 27.125445
8250   0  1  1.427586 35.704308 29.980796
8251   0  1  1.427569 35.704353 32.836151
8252   0  1  1.427538 35.704427 35.691511
8253   0  1  1.427497 35.704507 38.546876
8254   0  1  1.427454 35.704570 41.402238
8255   0  1  1.427419 35.704604 44.257588
8256   0  1  1.427400 35.704612 47.112914
8257   0  1  1.427400 35.704604 49.968202
8258   0  1  1.427412 35.704591 52.823444
8259   0  1  1.427424 35.704583 55.678647
8260   0  1  1.427375 38.559990  1.427594
8261   0  1  1.427361 38.560011  4.282792
8262   0  1  1.427344 38.560044  7.138022
8263   0  1  1.427338 38.560071  9.993292
8264   0  1  1.427351 38.560065 12.848605
8265   0  1  1.427381 38.560008 15.703960
8266   0  1  1.427420 38.559908 18.559343
8267   0  1  1.427458 38.559793 21.414728
8268   0  1  1.427487 38.559697 24.270097
8269   0  1  1.427503 38.559643 27.125448
8270   0  1  1.427503 38.559643 29.980793
8271   0  1  1.427487 38.559697 32.836145
8272   0  1  1.427458 38.559793 35.691514
8273   0  1  1.427420 38.559908 38.546899
8274   0  1  1.427381 38.560008 41.402281
8275   0  1  1.427351 38.560065 44.257636
8276   0  1  1.427338 38.560071 47.112950
8277   0  1  1.427344 38.560044 49.968220
8278   0  1  1.427361 38.560011 52.823449
8279   0  1  1.427375 38.559990 55.678648
8280   0  1  1.427338 41.415375  1.427592
8281   0  1  1.427320 41.415423  4.282781
8282   0  1  1.427298 41.415498  7.137986
8283   0  1  1.427286 41.415555  9.993226
8284   0  1  1.427294 41.415541 12.848535
8285   0  1  1.427319 41.415440 15.703922
8286   0  1  1.427352 41.415296 18.559341
8287   0  1  1.427385 41.415161 21.414743
8288   0  1  1.427410 41.415060 24.270112
8289   0  1  1.427423 41.415007 27.125454
8290   0  1  1.427423 41.415007 29.980787
8291   0  1  1.427410 41.415060 32.836129
8292   0  1  1.427385 41.415161 35.691498
8293   0  1  1.427352 41.415296 38.546900
8294   0  1  1.427319 41.415440 41.402319
8295   0  1  1.427294 41.415541 44.257706
8296   0  1  1.427286 41.415555 47.113015
8297   0  1  1.427298 41.415498 49.968255
8298   0  1  1.427320 41.415423 52.823461
8299   0  1  1.427338 41.415375 55.678649
8300   0  1  1.427315 44.270726  1.427586
8301   0  1  1.427289 44.270837  4.282747
8302   0  1  1.427261 44.271000  7.137891
8303   0  1  1.427249 44.271086  9.993094
8304   0  1  1.427259 44.270999 12.848457
8305   0  1  1.427284 44.270815 15.703925
8306   0  1  1.427312 44.270646 18.559377
8307   0  1  1.427337 44.270516 21.414779
8308   0  1  1.427356 44.270428 24.270136
8309   0  1  1.427366 44.270383 27.125463
8310   0  1  1.427366 44.270383 29.980779
8311   0  1  1.427356 44.270428 32.836105
8312   0  1  1.427337 44.270516 35.691462
8313   0  1  1.427312 44.270646 38.546864
8314   0  1  1.427284 44.270815 41.402316
8315   0  1  1.427259 44.270999 44.257784
8316   0  1  1.427249 44.271086 47.113147
8317   0  1  1.427261 44.271000 49.968350
8318   0  1  1.427289 44.270837 52.823494
8319   0  1  1.427315 44.270726 55.678655
8320   0  1  1.427313 47.126016  1.427577
8321   0  1  1.427250 47.126325  4.282630
8322   0  1  1.427223 47.126663  7.137607
8323   0  1  1.427233 47.126632  9.992879
8324   0  1  1.427264 47.126323 12.848469
8325   0  1  1.427291 47.126096 15.704004
8326   0  1  1.427313 47.125946 18.559450
8327   0  1  1.427331 47.125844 21.414830
8328   0  1  1.427344 47.125778 24.270164
8329   0  1  1.427351 47.125746 27.125472
8330   0  1  1.427351 47.125746 29.980770
8331   0  1  1.427344 47.125778 32.836077
8332   0  1  1.427331 47.125844 35.691411
8333   0  1  1.427313 47.125946 38.546791
8334   0  1  1.427291 47.126096 41.402237
8335   0  1  1.427264 47.126323 44.257772
8336   0  1  1.427233 47.126632 47.113363
8337   0  1  1.427223 47.126663 49.968634
8338   0  1  1.427250 47.126325 52.823611
8339   0  1  1.427313 47.126016 55.678665
8340   0  1  1.427456 49.981134  1.427687
8341   0  1  1.427112 49.982284  4.282087
8342   0  1  1.427157 49.982634  7.136875
8343   0  1  1.427265 49.981831  9.992930
8344   0  1  1.427319 49.981469 12.848638
8345   0  1  1.427347 49.981300 15.704137
8346   0  1  1.427364 49.981199 18.559538
8347   0  1  1.427377 49.981133 21.414883
8348   0  1  1.427386 49.981091 24.270192
8349   0  1  1.427390 49.981071 27.125480
8350   0  1  1.427390 49.981071 29.980761
8351   0  1  1.427386 49.981091 32.836049
8352   0  1  1.427377 49.981133 35.691358
8353   0  1  1.427364 49.981199 38.546703
8354   0  1  1.427347 49.981300 41.402104
8355   0  1  1.427319 49.981469 44.257603
8356   0  1  1.427265 49.981830 47.113311
8357   0  1  1.427157 49.982634 49.969367
8358   0  1  1.427112 49.982284 52.824154
8359   0  1  1.427456 49.981134 55.678555
8360   0  1  1.428995 52.836645  1.429168
8361   0  1  1.427027 52.840191  4.279243
8362   0  1  1.427180 52.837307  7.137281
8363   0  1  1.427363 52.836718  9.993332
8364   0  1  1.427420 52.836551 12.848863
8365   0  1  1.427445 52.836470 15.704266
8366   0  1  1.427460 52.836418 18.559615
8367   0  1  1.427470 52.836383 21.414928
8368   0  1  1.427477 52.836361 24.270216
8369   0  1  1.427480 52.836350 27.125488
8370   0  1  1.427480 52.836350 29.980754
8371   0  1  1.427477 52.836361 32.836025
8372   0  1  1.427470 52.836383 35.691313
8373   0  1  1.427460 52.836418 38.546626
8374   0  1  1.427445 52.836470 41.401975
8375   0  1  1.427420 52.836551 44.257379
8376   0  1  1.427363 52.836718 47.112910
8377   0  1  1.427180 52.837307 49.968960
8378   0  1  1.427027 52.840191 52.826998
8379   0  1  1.428995 52.836645 55.677073
8380   0  1  1.386335 55.732860  1.386441
8381   0  1  1.429089 55.690107  4.282822
8382   0  1  1.427616 55.691579  7.138468
8383   0  1  1.427520 55.691676  9.993680
8384   0  1  1.427545 55.691651 12.849012
8385   0  1  1.427566 55.691630 15.704347
8386   0  1  1.427580 55.691615 18.559663
8387   0  1  1.427591 55.691605 21.414957
8388   0  1  1.427597 55.691598 24.270231
8389   0  1  1.427601 55.691595 27.125492
8390   0  1  1.427601 55.691595 29.980749
8391   0  1  1.427597 55.691598 32.836010
8392   0  1  1.427591 55.691605 35.691284
8393   0  1  1.427580 55.691615 38.546578
8394   0  1  1.427566 55.691630 41.401894
8395   0  1  1.427545 55.691651 44.257229
8396   0  1  1.427520 55.691675 47.112561
8397   0  1  1.427616 55.691579 49.967774
8398   0  1  1.429089 55.690107 52.823419
8399   0  1  1.386335 55.732860 55.719801
8400   0  1  4.282644  1.442125  1.429180
8401   0  1  4.279098  1.440160  4.279267
8402   0  1  4.281988  1.440330  7.137314
8403   0  1  4.282587  1.440532  9.993371
8404   0  1  4.282762  1.440606 12.848904
8405   0  1  4.282849  1.440644 15.704305
8406   0  1  4.282905  1.440667 18.559648
8407   0  1  4.282943  1.440681 21.414953
8408   0  1  4.282966  1.440690 24.270231
8409   0  1  4.282978  1.440694 27.125493
8410   0  1  4.282978  1.440694 29.980749
8411   0  1  4.282966  1.440690 32.836010
8412   0  1  4.282943  1.440681 35.691288
8413   0  1  4.282905  1.440667 38.546594
8414   0  1  4.282849  1.440644 41.401937
8415   0  1  4.282762  1.440606 44.257337
8416   0  1  4.282587  1.440532 47.112870
8417   0  1  4.281988  1.440330 49.968927
8418   0  1  4.279098  1.440159 52.826974
8419   0  1  4.282644  1.442125 55.677061
8420   0  1  4.279160  4.292026  1.427210
8421   0  1  4.276313  4.289179  4.276413
8422   0  1  4.281807  4.294673  7.136962
8423   0  1  4.282591  4.295457  9.993228
8424   0  1  4.282815  4.295681 12.848836
8425   0  1  4.282925  4.295791 15.704277
8426   0  1  4.282991  4.295857 18.559641
8427   0  1  4.283034  4.295900 21.414955
8428   0  1  4.283060  4.295926 24.270235
8429   0  1  4.283073  4.295939 27.125494
8430   0  1  4.283073  4.295939 29.980747
8431   0  1  4.283060  4.295926 32.836007
8432   0  1  4.283034  4.295900 35.691287
8433   0  1  4.282991  4.295857 38.546601
8434   0  1  4.282925  4.295791 41.401964
8435   0  1  4.282815  4.295681 44.257406
8436   0  1  4.282591  4.295457 47.113013
8437   0  1  4.281807  4.294673 49.969279
8438   0  1  4.276313  4.289179 52.829828
8439   0  1  4.279160  4.292026 55.679031
8440   0  1  4.282081  7.149912  1.427363
8441   0  1  4.281832  7.149567  4.281870
8442   0  1  4.282206  7.149540  7.136889
8443   0  1  4.282606  7.150363  9.992950
8444   0  1  4.282835  7.150757 12.848681
8445   0  1  4.282960  7.150954 15.704196
8446   0  1  4.283036  7.151072 18.559600
8447   0  1  4.283084  7.151149 21.414936
8448   0  1  4.283113  7.151196 24.270228
8449   0  1  4.283127  7.151219 27.125493
8450   0  1  4.283127  7.151219 29.980749
8451   0  1  4.283113  7.151196 32.836014
8452   0  1  4.283084  7.151149 35.691305
8453   0  1  4.283036  7.151072 38.546642
8454   0  1  4.282960  7.150954 41.402046
8455   0  1  4.282835  7.150757 44.257561
8456   0  1  4.282606  7.150363 47.113291
8457   0  1  4.282206  7.149540 49.969352
8458   0  1  4.281832  7.149567 52.824371
8459   0  1  4.282081  7.149912 55.678878
8460   0  1  4.282675 10.005845  1.427540
8461   0  1  4.282604 10.005705  4.282598
8462   0  1  4.282589 10.005473  7.137633
8463   0  1  4.282703 10.005564  9.992954
8464   0  1  4.282854 10.005896 12.848558
8465   0  1  4.282969 10.006145 15.704098
8466   0  1  4.283050 10.006313 18.559540
8467   0  1  4.283103 10.006427 21.414905
8468   0  1  4.283136 10.006499 24.270213
8469   0  1  4.283151 10.006534 27.125489
8470   0  1  4.283151 10.006534 29.980753
8471   0  1  4.283136 10.006499 32.836028
8472   0  1  4.283103 10.006427 35.691337
8473   0  1  4.283050 10.006313 38.546701
8474   0  1  4.282969 10.006145 41.402143
8475   0  1  4.282854 10.005896 44.257683
8476   0  1  4.282703 10.005564 47.113287
8477   0  1  4.282589 10.005473 49.968608
8478   0  1  4.282604 10.005705 52.823643
8479   0  1  4.282675 10.005845 55.678701
8480   0  1  4.282816 12.861303  1.427586
8481   0  1  4.282785 12.861231  4.282755
8482   0  1  4.282766 12.861113  7.137927
8483   0  1  4.282796 12.861071  9.993167
8484   0  1  4.282874 12.861189 12.848557
8485   0  1  4.282967 12.861397 15.704036
8486   0  1  4.283048 12.861587 18.559485
8487   0  1  4.283107 12.861732 21.414870
8488   0  1  4.283145 12.861829 24.270196
8489   0  1  4.283162 12.861878 27.125484
8490   0  1  4.283162 12.861878 29.980758
8491   0  1  4.283145 12.861829 32.836045
8492   0  1  4.283107 12.861732 35.691371
8493   0  1  4.283048 12.861587 38.546756
8494   0  1  4.282967 12.861397 41.402205
8495   0  1  4.282874 12.861189 44.257684
8496   0  1  4.282796 12.861071 47.113074
8497   0  1  4.282766 12.861113 49.968315
8498   0  1  4.282785 12.861231 52.823487
8499   0  1  4.282816 12.861303 55.678656
8500   0  1  4.282847 15.716686  1.427596
8501   0  1  4.282828 15.716648  4.282794
8502   0  1  4.282814 15.716589  7.138015
8503   0  1  4.282828 15.716555  9.993280
8504   0  1  4.282879 15.716598 12.848618
8505   0  1  4.282959 15.716729 15.704026
8506   0  1  4.283042 15.716902 18.559453
8507   0  1  4.283109 15.717061 21.414843
8508   0  1  4.283154 15.717178 24.270181
8509   0  1  4.283176 15.717238 27.125479
8510   0  1  4.283176 15.717238 29.980763
8511   0  1  4.283154 15.717178 32.836061
8512   0  1  4.283109 15.717061 35.691399
8513   0  1  4.283042 15.716902 38.546789
8514   0  1  4.282959 15.716729 41.402215
8515   0  1  4.282879 15.716598 44.257624
8516   0  1  4.282828 15.716555 47.112961
8517   0  1  4.282814 15.716589 49.968226
8518   0  1  4.282828 15.716648 52.823448
8519   0  1  4.282847 15.716686 55.678646
8520   0  1  4.282834 18.572069  1.427595
8521   0  1  4.282817 18.572047  4.282795
8522   0  1  4.282802 18.572015  7.138030
8523   0  1  4.282813 18.571997  9.993314
8524   0  1  4.282862 18.572023 12.848653
8525   0  1  4.282943 18.572113 15.704038
8526   0  1  4.283034 18.572254 18.559441
8527   0  1  4.283114 18.572407 21.414824
8528   0  1  4.283169 18.572532 24.270167
8529   0  1  4.283195 18.572600 27.125474
8530   0  1  4.283195 18.572600 29.980767
8531   0  1  4.283169 18.572532 32.836074
8532   0  1  4.283114 18.572407 35.691417
8533   0  1  4.283034 18.572254 38.546800
8534   0  1  4.282943 18.572113 41.402203
8535   0  1  4.282862 18.572023 44.257588
8536   0  1  4.282813 18.571997 47.112927
8537   0  1  4.282802 18.572015 49.968212
8538   0  1  4.282817 18.572047 52.823447
8539   0  1  4.282834 18.572069 55.678647
8540   0  1  4.282796 21.427466  1.427590
8541   0  1  4.282778 21.427451  4.282783
8542   0  1  4.282761 21.427431  7.138018
8543   0  1  4.282771 21.427422  9.993310
8544   0  1  4.282825 21.427443 12.848656
8545   0  1  4.282916 21.427510 15.704039
8546   0  1  4.283021 21.427622 18.559431
8547   0  1  4.283114 21.427757 21.414807
8548   0  1  4.283180 21.427877 24.270153
8549   0  1  4.283214 21.427947 27.125469
8550   0  1  4.283214 21.427947 29.980773
8551   0  1  4.283180 21.427877 32.836089
8552   0  1  4.283114 21.427757 35.691434
8553   0  1  4.283021 21.427622 38.546810
8554   0  1  4.282916 21.427510 41.402202
8555   0  1  4.282825 21.427443 44.257585
8556   0  1  4.282771 21.427422 47.112932
8557   0  1  4.282761 21.427431 49.968223
8558   0  1  4.282778 21.427451 52.823458
8559   0  1  4.282796 21.427466 55.678651
8560   0  1  4.282746 24.282878  1.427584
8561   0  1  4.282725 24.282867  4.282768
8562   0  1  4.282704 24.282853  7.137997
8563   0  1  4.282714 24.282846  9.993289
8564   0  1  4.282773 24.282862 12.848639
8565   0  1  4.282875 24.282911 15.704022
8566   0  1  4.282994 24.282995 18.559409
8567   0  1  4.283100 24.283102 21.414780
8568   0  1  4.283177 24.283205 24.270130
8569   0  1  4.283216 24.283269 27.125460
8570   0  1  4.283216 24.283269 29.980782
8571   0  1  4.283177 24.283205 32.836112
8572   0  1  4.283100 24.283102 35.691461
8573   0  1  4.282994 24.282995 38.546833
8574   0  1  4.282875 24.282911 41.402220
8575   0  1  4.282773 24.282862 44.257603
8576   0  1  4.282714 24.282846 47.112953
8577   0  1  4.282704 24.282853 49.968245
8578   0  1  4.282725 24.282867 52.823474
8579   0  1  4.282746 24.282878 55.678657
8580   0  1  4.282688 27.138301  1.427579
8581   0  1  4.282663 27.138294  4.282752
8582   0  1  4.282638 27.138284  7.137973
8583   0  1  4.282646 27.138279  9.993260
8584   0  1  4.282708 27.138289 12.848607
8585   0  1  4.282818 27.138320 15.703988
8586   0  1  4.282946 27.138374 18.559371
8587   0  1  4.283062 27.138445 21.414740
8588   0  1  4.283147 27.138516 24.270096
8589   0  1  4.283191 27.138562 27.125446
8590   0  1  4.283191 27.138562 29.980795
8591   0  1  4.283147 27.138516 32.836146
8592   0  1  4.283062 27.138445 35.691502
8593   0  1  4.282946 27.138374 38.546871
8594   0  1  4.282818 27.138320 41.402253
8595   0  1  4.282708 27.138289 44.257634
8596   0  1  4.282646 27.138279 47.112982
8597   0  1  4.282638 27.138284 49.968269
8598   0  1  4.282663 27.138294 52.823489
8599   0  1  4.282688 27.138301 55.678663
8600   0  1  4.282626 29.993734  1.427574
8601   0  1  4.282598 29.993731  4.282737
8602   0  1  4.282568 29.993727  7.137948
8603   0  1  4.282571 29.993726  9.993226
8604   0  1  4.282631 29.993731 12.848566
8605   0  1  4.282742 29.993745 15.703941
8606   0  1  4.282874 29.993768 18.559321
8607   0  1  4.282994 29.993796 21.414692
8608   0  1  4.283083 29.993821 24.270059
8609   0  1  4.283130 29.993837 27.125432
8610   0  1  4.283130 29.993837 29.980809
8611   0  1  4.283083 29.993821 32.836182
8612   0  1  4.282994 29.993796 35.691550
8613   0  1  4.282874 29.993768 38.546921
8614   0  1  4.282742 29.993745 41.402301
8615   0  1  4.282631 29.993731 44.257676
8616   0  1  4.282571 29.993726 47.113015
8617   0  1  4.282568 29.993727 49.968293
8618   0  1  4.282598 29.993731 52.823504
8619   0  1  4.282626 29.993734 55.678667
8620   0  1  4.282563 32.849173  1.427570
8621   0  1  4.282532 32.849176  4.282724
8622   0  1  4.282496 32.849182  7.137924
8623   0  1  4.282492 32.849189  9.993189
8624   0  1  4.282544 32.849194 12.848516
8625   0  1  4.282648 32.849193 15.703884
8626   0  1  4.282775 32.849183 18.559265
8627   0  1  4.282894 32.849163 21.414647
8628   0  1  4.282983 32.849137 24.270032
8629   0  1  4.283029 32.849119 27.125423
8630   0  1  4.283029 32.849119 29.980818
8631   0  1  4.282983 32.849137 32.836210
8632   0  1  4.282894 32.849163 35.691594
8633   0  1  4.282775 32.849183 38.546976
8634   0  1  4.282648 32.849193 41.402357
8635   0  1  4.282544 32.849194 44.257725
8636   0  1  4.282492 32.849189 47.113053
8637   0  1  4.282496 32.849182 49.968318
8638   0  1  4.282532 32.849176 52.823517
8639   0  1  4.282563 32.849173 55.678672
8640   0  1  4.282503 35.704613  1.427566
8641   0  1  4.282468 35.704626  4.282712
8642   0  1  4.282425 35.704649  7.137899
8643   0  1  4.282410 35.704671  9.993148
8644   0  1  4.282449 35.704682 12.848461
8645   0  1  4.282539 35.704666 15.703823
8646   0  1  4.282655 35.704620 18.559214
8647   0  1  4.282766 35.704550 21.414617
8648   0  1  4.282849 35.704479 24.270021
8649   0  1  4.282893 35.704434 27.125421
8650   0  1  4.282893 35.704434 29.980820
8651   0  1  4.282849 35.704479 32.836221
8652   0  1  4.282766 35.704550 35.691625
8653   0  1  4.282655 35.704620 38.547027
8654   0  1  4.282539 35.704666 41.402418
8655   0  1  4.282449 35.704682 44.257780
8656   0  1  4.282410 35.704671 47.113093
8657   0  1  4.282425 35.704649 49.968342
8658   0  1  4.282468 35.704626 52.823530
8659   0  1  4.282503 35.704613 55.678675
8660   0  1  4.282448 38.560049  1.427563
8661   0  1  4.282409 38.560078  4.282699
8662   0  1  4.282358 38.560126  7.137871
8663   0  1  4.282331 38.560173  9.993100
8664   0  1  4.282355 38.560190 12.848400
8665   0  1  4.282428 38.560153 15.703767
8666   0  1  4.282528 38.560065 18.559182
8667   0  1  4.282625 38.559953 21.414610
8668   0  1  4.282699 38.559853 24.270026
8669   0  1  4.282737 38.559796 27.125425
8670   0  1  4.282737 38.559796 29.980816
8671   0  1  4.282699 38.559853 32.836215
8672   0  1  4.282625 38.559953 35.691632
8673   0  1  4.282528 38.560065 38.547059
8674   0  1  4.282428 38.560153 41.402474
8675   0  1  4.282355 38.560190 44.257842
8676   0  1  4.282331 38.560173 47.113141
8677   0  1  4.282358 38.560126 49.968370
8678   0  1  4.282409 38.560078 52.823542
8679   0  1  4.282448 38.560049 55.678679
8680   0  1  4.282398 41.415479  1.427558
8681   0  1  4.282352 41.415531  4.282680
8682   0  1  4.282292 41.415619  7.137829
8683   0  1  4.282258 41.415696  9.993033
8684   0  1  4.282274 41.415705 12.848332
8685   0  1  4.282337 41.415624 15.703732
8686   0  1  4.282421 41.415490 18.559184
8687   0  1  4.282501 41.415356 21.414630
8688   0  1  4.282560 41.415251 24.270045
8689   0  1  4.282591 41.415195 27.125432
8690   0  1  4.282591 41.415195 29.980809
8691   0  1  4.282560 41.415251 32.836196
8692   0  1  4.282501 41.415356 35.691611
8693   0  1  4.282421 41.415490 38.547057
8694   0  1  4.282337 41.415624 41.402509
8695   0  1  4.282274 41.415705 44.257910
8696   0  1  4.282258 41.415696 47.113208
8697   0  1  4.282292 41.415619 49.968413
8698   0  1  4.282352 41.415531 52.823561
8699   0  1  4.282398 41.415479 55.678684
8700   0  1  4.282342 44.270910  1.427545
8701   0  1  4.282281 44.271002  4.282633
8702   0  1  4.282213 44.271158  7.137730
8703   0  1  4.282191 44.271251  9.992912
8704   0  1  4.282225 44.271184 12.848271
8705   0  1  4.282293 44.271021 15.703752
8706   0  1  4.282366 44.270861 18.559235
8707   0  1  4.282429 44.270732 21.414677
8708   0  1  4.282474 44.270643 24.270075
8709   0  1  4.282496 44.270597 27.125442
8710   0  1  4.282496 44.270597 29.980799
8711   0  1  4.282474 44.270643 32.836166
8712   0  1  4.282429 44.270732 35.691564
8713   0  1  4.282366 44.270861 38.547006
8714   0  1  4.282293 44.271021 41.402489
8715   0  1  4.282225 44.271184 44.257970
8716   0  1  4.282191 44.271251 47.113329
8717   0  1  4.282213 44.271158 49.968511
8718   0  1  4.282281 44.271002 52.823609
8719   0  1  4.282342 44.270910 55.678696
8720   0  1  4.282224 47.126412  1.427500
8721   0  1  4.282126 47.126574  4.282482
8722   0  1  4.282065 47.126845  7.137449
8723   0  1  4.282126 47.126802  9.992722
8724   0  1  4.282235 47.126515 12.848305
8725   0  1  4.282321 47.126302 15.703854
8726   0  1  4.282387 47.126158 18.559329
8727   0  1  4.282436 47.126058 21.414743
8728   0  1  4.282468 47.125992 24.270113
8729   0  1  4.282485 47.125959 27.125455
8730   0  1  4.282485 47.125959 29.980787
8731   0  1  4.282468 47.125992 32.836128
8732   0  1  4.282436 47.126058 35.691498
8733   0  1  4.282387 47.126158 38.546913
8734   0  1  4.282321 47.126302 41.402388
8735   0  1  4.282235 47.126515 44.257936
8736   0  1  4.282126 47.126802 47.113520
8737   0  1  4.282065 47.126845 49.968792
8738   0  1  4.282126 47.126574 52.823760
8739   0  1  4.282224 47.126412 55.678741
8740   0  1  4.281705 49.982379  1.427329
8741   0  1  4.281435 49.982743  4.281772
8742   0  1  4.281772 49.982803  7.136739
8743   0  1  4.282131 49.982017  9.992767
8744   0  1  4.282324 49.981657 12.848486
8745   0  1  4.282422 49.981487 15.704010
8746   0  1  4.282482 49.981387 18.559441
8747   0  1  4.282522 49.981321 21.414816
8748   0  1  4.282548 49.981279 24.270153
8749   0  1  4.282560 49.981258 27.125467
8750   0  1  4.282560 49.981258 29.980774
8751   0  1  4.282548 49.981279 32.836088
8752   0  1  4.282522 49.981321 35.691425
8753   0  1  4.282482 49.981387 38.546800
8754   0  1  4.282422 49.981487 41.402231
8755   0  1  4.282324 49.981657 44.257756
8756   0  1  4.282131 49.982017 47.113475
8757   0  1  4.281772 49.982803 49.969502
8758   0  1  4.281435 49.982743 52.824469
8759   0  1  4.281705 49.982379 55.678912
8760   0  1  4.278905 52.840290  1.427186
8761   0  1  4.276045 52.843151  4.276342
8762   0  1  4.281520 52.837675  7.136865
8763   0  1  4.282278 52.836917  9.993113
8764   0  1  4.282479 52.836716 12.848714
8765   0  1  4.282570 52.836625 15.704163
8766   0  1  4.282625 52.836571 18.559543
8767   0  1  4.282661 52.836535 21.414881
8768   0  1  4.282684 52.836512 24.270189
8769   0  1  4.282695 52.836501 27.125479
8770   0  1  4.282695 52.836501 29.980762
8771   0  1  4.282684 52.836512 32.836052
8772   0  1  4.282661 52.836535 35.691360
8773   0  1  4.282625 52.836571 38.546698
8774   0  1  4.282570 52.836625 41.402079
8775   0  1  4.282479 52.836716 44.257527
8776   0  1  4.282278 52.836917 47.113129
8777   0  1  4.281520 52.837675 49.969376
8778   0  1  4.276045 52.843151 52.829900
8779   0  1  4.278905 52.840290 55.679056
8780   0  1  4.282550 55.690200  1.429168
8781   0  1  4.279004 55.692168  4.279243
8782   0  1  4.281888 55.692015  7.137281
8783   0  1  4.282478 55.691833  9.993332
8784   0  1  4.282645 55.691776 12.848863
8785   0  1  4.282726 55.691751 15.704266
8786   0  1  4.282777 55.691736 18.559615
8787   0  1  4.282812 55.691725 21.414928
8788   0  1  4.282835 55.691719 24.270216
8789   0  1  4.282846 55.691715 27.125488
8790   0  1  4.282846 55.691715 29.980754
8791   0  1  4.282835 55.691719 32.836025
8792   0  1  4.282812 55.691725 35.691313
8793   0  1  4.282777 55.691736 38.546626
8794   0  1  4.282726 55.691751 41.401975
8795   0  1  4.282645 55.691776 44.257379
8796   0  1  4.282478 55.691833 47.112910
8797   0  1  4.281888 55.692015 49.968960
8798   0  1  4.279004 55.692168 52.826998
8799   0  1  4.282550 55.690200 55.677073
8800   0  1  7.138142  1.440708  1.427699
8801   0  1  7.136998  1.440377  4.282121
8802   0  1  7.136659  1.440449  7.136926
8803   0  1  7.137474  1.440585  9.992992
8804   0  1  7.137846  1.440663 12.848704
8805   0  1  7.138025  1.440706 15.704199
8806   0  1  7.138131  1.440732 18.559591
8807   0  1  7.138200  1.440748 21.414923
8808   0  1  7.138244  1.440757 24.270217
8809   0  1  7.138266  1.440761 27.125489
8810   0  1  7.138266  1.440761 29.980753
8811   0  1  7.138244  1.440757 32.836024
8812   0  1  7.138200  1.440748 35.691318
8813   0  1  7.138131  1.440732 38.546651
8814   0  1  7.138025  1.440706 41.402043
8815   0  1  7.137846  1.440662 44.257538
8816   0  1  7.137474  1.440585 47.113249
8817   0  1  7.136659  1.440449 49.969316
8818   0  1  7.136998  1.440377 52.824120
8819   0  1  7.138142  1.440708 55.678542
8820   0  1  7.137046  4.294947  1.427363
8821   0  1  7.136701  4.294698  4.281870
8822   0  1  7.136674  4.295072  7.136889
8823   0  1  7.137497  4.295472  9.992950
8824   0  1  7.137891  4.295701 12.848681
8825   0  1  7.138088  4.295826 15.704196
8826   0  1  7.138206  4.295902 18.559600
8827   0  1  7.138283  4.295950 21.414936
8828   0  1  7.138330  4.295979 24.270228
8829   0  1  7.138353  4.295993 27.125493
8830   0  1  7.138353  4.295993 29.980749
8831   0  1  7.138330  4.295979 32.836014
8832   0  1  7.138283  4.295950 35.691305
8833   0  1  7.138206  4.295902 38.546642
8834   0  1  7.138088  4.295826 41.402046
8835   0  1  7.137891  4.295701 44.257561
8836   0  1  7.137497  4.295472 47.113291
8837   0  1  7.136674  4.295072 49.969352
8838   0  1  7.136701  4.294698 52.824371
8839   0  1  7.137046  4.294947 55.678878
8840   0  1  7.136718  7.149584  1.427414
8841   0  1  7.136679  7.149545  4.282206
8842   0  1  7.136522  7.149388  7.136685
8843   0  1  7.137478  7.150344  9.992831
8844   0  1  7.137889  7.150755 12.848590
8845   0  1  7.138101  7.150967 15.704139
8846   0  1  7.138232  7.151098 18.559572
8847   0  1  7.138318  7.151184 21.414926
8848   0  1  7.138371  7.151237 24.270226
8849   0  1  7.138396  7.151262 27.125493
8850   0  1  7.138396  7.151262 29.980748
8851   0  1  7.138371  7.151237 32.836015
8852   0  1  7.138318  7.151184 35.691315
8853   0  1  7.138232  7.151098 38.546669
8854   0  1  7.138101  7.150967 41.402102
8855   0  1  7.137889  7.150755 44.257651
8856   0  1  7.137478  7.150344 47.113410
8857   0  1  7.136522  7.149388 49.969556
8858   0  1  7.136679  7.149545 52.824035
8859   0  1  7.136718  7.149584 55.678827
8860   0  1  7.137508 10.005516  1.427519
8861   0  1  7.137466 10.005463  4.282541
8862   0  1  7.137434 10.005387  7.137549
8863   0  1  7.137651 10.005554  9.992899
8864   0  1  7.137898 10.005884 12.848501
8865   0  1  7.138090 10.006139 15.704056
8866   0  1  7.138229 10.006320 18.559520
8867   0  1  7.138325 10.006446 21.414901
8868   0  1  7.138385 10.006526 24.270216
8869   0  1  7.138414 10.006565 27.125491
8870   0  1  7.138414 10.006565 29.980751
8871   0  1  7.138385 10.006526 32.836025
8872   0  1  7.138325 10.006446 35.691340
8873   0  1  7.138229 10.006320 38.546721
8874   0  1  7.138090 10.006139 41.402185
8875   0  1  7.137898 10.005884 44.257741
8876   0  1  7.137651 10.005554 47.113342
8877   0  1  7.137434 10.005387 49.968693
8878   0  1  7.137466 10.005463 52.823700
8879   0  1  7.137508 10.005516 55.678722
8880   0  1  7.137824 12.861139  1.427562
8881   0  1  7.137789 12.861093  4.282688
8882   0  1  7.137758 12.861028  7.137835
8883   0  1  7.137800 12.861022  9.993082
8884   0  1  7.137921 12.861153 12.848488
8885   0  1  7.138074 12.861369 15.703989
8886   0  1  7.138214 12.861573 18.559465
8887   0  1  7.138323 12.861734 21.414869
8888   0  1  7.138393 12.861843 24.270203
8889   0  1  7.138427 12.861898 27.125487
8890   0  1  7.138427 12.861898 29.980754
8891   0  1  7.138393 12.861843 32.836039
8892   0  1  7.138323 12.861734 35.691372
8893   0  1  7.138214 12.861573 38.546777
8894   0  1  7.138074 12.861369 41.402252
8895   0  1  7.137921 12.861153 44.257753
8896   0  1  7.137800 12.861022 47.113159
8897   0  1  7.137758 12.861028 49.968406
8898   0  1  7.137789 12.861093 52.823554
8899   0  1  7.137824 12.861139 55.678679
8900   0  1  7.137925 15.716601  1.427573
8901   0  1  7.137892 15.716565  4.282725
8902   0  1  7.137855 15.716511  7.137909
8903   0  1  7.137859 15.716480  9.993160
8904   0  1  7.137930 15.716529 12.848511
8905   0  1  7.138059 15.716674 15.703955
8906   0  1  7.138205 15.716869 18.559422
8907   0  1  7.138331 15.717054 21.414841
8908   0  1  7.138416 15.717190 24.270190
8909   0  1  7.138458 15.717262 27.125484
8910   0  1  7.138458 15.717262 29.980757
8911   0  1  7.138416 15.717190 32.836051
8912   0  1  7.138331 15.717054 35.691400
8913   0  1  7.138205 15.716869 38.546820
8914   0  1  7.138059 15.716674 41.402287
8915   0  1  7.137930 15.716529 44.257730
8916   0  1  7.137859 15.716480 47.113082
8917   0  1  7.137855 15.716511 49.968332
8918   0  1  7.137892 15.716565 52.823516
8919   0  1  7.137925 15.716601 55.678669
8920   0  1  7.137942 18.572020  1.427570
8921   0  1  7.137907 18.571991  4.282720
8922   0  1  7.137863 18.571945  7.137907
8923   0  1  7.137852 18.571913  9.993161
8924   0  1  7.137911 18.571933 12.848504
8925   0  1  7.138040 18.572035 15.703930
8926   0  1  7.138205 18.572208 18.559389
8927   0  1  7.138357 18.572402 21.414818
8928   0  1  7.138464 18.572561 24.270179
8929   0  1  7.138517 18.572650 27.125481
8930   0  1  7.138517 18.572650 29.980760
8931   0  1  7.138464 18.572561 32.836062
8932   0  1  7.138357 18.572402 35.691424
8933   0  1  7.138205 18.572208 38.546852
8934   0  1  7.138040 18.572035 41.402311
8935   0  1  7.137911 18.571933 44.257737
8936   0  1  7.137852 18.571913 47.113081
8937   0  1  7.137863 18.571945 49.968334
8938   0  1  7.137907 18.571991 52.823521
8939   0  1  7.137942 18.572020 55.678671
8940   0  1  7.137923 21.427436  1.427563
8941   0  1  7.137882 21.427411  4.282701
8942   0  1  7.137829 21.427372  7.137877
8943   0  1  7.137809 21.427341  9.993126
8944   0  1  7.137867 21.427350 12.848468
8945   0  1  7.138011 21.427427 15.703891
8946   0  1  7.138202 21.427574 18.559350
8947   0  1  7.138386 21.427763 21.414785
8948   0  1  7.138519 21.427935 24.270160
8949   0  1  7.138587 21.428037 27.125475
8950   0  1  7.138587 21.428037 29.980766
8951   0  1  7.138519 21.427935 32.836081
8952   0  1  7.138386 21.427763 35.691456
8953   0  1  7.138202 21.427574 38.546892
8954   0  1  7.138011 21.427427 41.402350
8955   0  1  7.137867 21.427350 44.257774
8956   0  1  7.137809 21.427341 47.113116
8957   0  1  7.137829 21.427372 49.968364
8958   0  1  7.137882 21.427411 52.823540
8959   0  1  7.137923 21.427436 55.678678
8960   0  1  7.137883 24.282860  1.427556
8961   0  1  7.137837 24.282840  4.282677
8962   0  1  7.137773 24.282808  7.137839
8963   0  1  7.137745 24.282782  9.993076
8964   0  1  7.137805 24.282785 12.848413
8965   0  1  7.137964 24.282841 15.703834
8966   0  1  7.138181 24.282959 18.559290
8967   0  1  7.138393 24.283123 21.414728
8968   0  1  7.138551 24.283289 24.270118
8969   0  1  7.138633 24.283394 27.125460
8970   0  1  7.138633 24.283394 29.980781
8971   0  1  7.138551 24.283289 32.836123
8972   0  1  7.138393 24.283123 35.691514
8973   0  1  7.138181 24.282959 38.546951
8974   0  1  7.137964 24.282841 41.402407
8975   0  1  7.137805 24.282785 44.257829
8976   0  1  7.137745 24.282782 47.113165
8977   0  1  7.137773 24.282808 49.968402
8978   0  1  7.137837 24.282840 52.823564
8979   0  1  7.137883 24.282860 55.678686
8980   0  1  7.137832 27.138295  1.427548
8981   0  1  7.137779 27.138282  4.282654
8982   0  1  7.137705 27.138260  7.137799
8983   0  1  7.137667 27.138242  9.993021
8984   0  1  7.137724 27.138244 12.848347
8985   0  1  7.137892 27.138283 15.703761
8986   0  1  7.138125 27.138368 18.559210
8987   0  1  7.138356 27.138488 21.414645
8988   0  1  7.138530 27.138616 24.270049
8989   0  1  7.138622 27.138703 27.125433
8990   0  1  7.138622 27.138703 29.980809
8991   0  1  7.138530 27.138616 32.836192
8992   0  1  7.138356 27.138488 35.691597
8993   0  1  7.138125 27.138368 38.547031
8994   0  1  7.137892 27.138283 41.402480
8995   0  1  7.137724 27.138244 44.257895
8996   0  1  7.137667 27.138242 47.113220
8997   0  1  7.137705 27.138260 49.968442
8998   0  1  7.137779 27.138282 52.823587
8999   0  1  7.137832 27.138295 55.678693
9000   0  1  7.137772 29.993742  1.427541
9001   0  1  7.137713 29.993737  4.282632
9002   0  1  7.137629 29.993731  7.137760
9003   0  1  7.137579 29.993727  9.992964
9004   0  1  7.137626 29.993736 12.848274
9005   0  1  7.137790 29.993763 15.703675
9006   0  1  7.138026 29.993812 18.559116
9007   0  1  7.138261 29.993876 21.414551
9008   0  1  7.138441 29.993938 24.269974
9009   0  1  7.138535 29.993977 27.125402
9010   0  1  7.138535 29.993977 29.980839
9011   0  1  7.138441 29.993938 32.836268
9012   0  1  7.138261 29.993876 35.691690
9013   0  1  7.138026 29.993812 38.547125
9014   0  1  7.137790 29.993763 41.402566
9015   0  1  7.137626 29.993736 44.257968
9016   0  1  7.137579 29.993727 47.113277
9017   0  1  7.137629 29.993731 49.968481
9018   0  1  7.137713 29.993737 52.823609
9019   0  1  7.137772 29.993742 55.678700
9020   0  1  7.137708 32.849199  1.427535
9021   0  1  7.137644 32.849206  4.282612
9022   0  1  7.137548 32.849221  7.137723
9023   0  1  7.137483 32.849241  9.992907
9024   0  1  7.137513 32.849264 12.848196
9025   0  1  7.137659 32.849285 15.703582
9026   0  1  7.137880 32.849298 18.559020
9027   0  1  7.138105 32.849297 21.414469
9028   0  1  7.138277 32.849280 24.269921
9029   0  1  7.138369 32.849259 27.125386
9030   0  1  7.138369 32.849259 29.980856
9031   0  1  7.138277 32.849280 32.836320
9032   0  1  7.138105 32.849297 35.691772
9033   0  1  7.137880 32.849298 38.547221
9034   0  1  7.137659 32.849285 41.402659
9035   0  1  7.137513 32.849264 44.258045
9036   0  1  7.137483 32.849241 47.113334
9037   0  1  7.137548 32.849221 49.968518
9038   0  1  7.137644 32.849206 52.823630
9039   0  1  7.137708 32.849199 55.678707
9040   0  1  7.137641 35.704665  1.427529
9041   0  1  7.137572 35.704688  4.282593
9042   0  1  7.137466 35.704731  7.137687
9043   0  1  7.137385 35.704782  9.992851
9044   0  1  7.137391 35.704825 12.848120
9045   0  1  7.137507 35.704841 15.703496
9046   0  1  7.137698 35.704816 18.558942
9047   0  1  7.137898 35.704749 21.414420
9048   0  1  7.138052 35.704663 24.269905
9049   0  1  7.138134 35.704604 27.125384
9050   0  1  7.138134 35.704604 29.980858
9051   0  1  7.138052 35.704663 32.836336
9052   0  1  7.137898 35.704749 35.691821
9053   0  1  7.137698 35.704816 38.547299
9054   0  1  7.137507 35.704841 41.402746
9055   0  1  7.137391 35.704825 44.258121
9056   0  1  7.137385 35.704782 47.113390
9057   0  1  7.137466 35.704731 49.968554
9058   0  1  7.137572 35.704688 52.823649
9059   0  1  7.137641 35.704665 55.678713
9060   0  1  7.137573 38.560140  1.427523
9061   0  1  7.137499 38.560182  4.282574
9062   0  1  7.137385 38.560257  7.137653
9063   0  1  7.137290 38.560343  9.992798
9064   0  1  7.137273 38.560404 12.848054
9065   0  1  7.137358 38.560406 15.703434
9066   0  1  7.137512 38.560336 18.558907
9067   0  1  7.137676 38.560216 21.414417
9068   0  1  7.137803 38.560098 24.269916
9069   0  1  7.137870 38.560026 27.125390
9070   0  1  7.137870 38.560026 29.980852
9071   0  1  7.137803 38.560098 32.836326
9072   0  1  7.137676 38.560216 35.691824
9073   0  1  7.137512 38.560336 38.547334
9074   0  1  7.137358 38.560406 41.402807
9075   0  1  7.137273 38.560404 44.258187
9076   0  1  7.137290 38.560343 47.113443
9077   0  1  7.137385 38.560257 49.968589
9078   0  1  7.137499 38.560182 52.823667
9079   0  1  7.137573 38.560140 55.678718
9080   0  1  7.137496 41.415629  1.427516
9081   0  1  7.137418 41.415691  4.282550
9082   0  1  7.137300 41.415799  7.137609
9083   0  1  7.137203 41.415913  9.992741
9084   0  1  7.137183 41.415967 12.848006
9085   0  1  7.137251 41.415925 15.703422
9086   0  1  7.137375 41.415807 18.558932
9087   0  1  7.137501 41.415667 21.414454
9088   0  1  7.137596 41.415551 24.269944
9089   0  1  7.137645 41.415486 27.125400
9090   0  1  7.137645 41.415486 29.980841
9091   0  1  7.137596 41.415551 32.836297
9092   0  1  7.137501 41.415667 35.691787
9093   0  1  7.137375 41.415807 38.547309
9094   0  1  7.137251 41.415925 41.402819
9095   0  1  7.137183 41.415967 44.258235
9096   0  1  7.137203 41.415913 47.113500
9097   0  1  7.137300 41.415799 49.968632
9098   0  1  7.137418 41.415691 52.823691
9099   0  1  7.137496 41.415629 55.678726
9100   0  1  7.137375 44.271162  1.427501
9101   0  1  7.137293 44.271243  4.282500
9102   0  1  7.137178 44.271378  7.137520
9103   0  1  7.137118 44.271481  9.992654
9104   0  1  7.137144 44.271453 12.847991
9105   0  1  7.137232 44.271325 15.703488
9106   0  1  7.137338 44.271180 18.559021
9107   0  1  7.137433 44.271052 21.414526
9108   0  1  7.137502 44.270958 24.269988
9109   0  1  7.137537 44.270909 27.125414
9110   0  1  7.137537 44.270909 29.980827
9111   0  1  7.137502 44.270958 32.836253
9112   0  1  7.137433 44.271052 35.691715
9113   0  1  7.137338 44.271180 38.547221
9114   0  1  7.137232 44.271325 41.402753
9115   0  1  7.137144 44.271453 44.258250
9116   0  1  7.137118 44.271481 47.113587
9117   0  1  7.137178 44.271378 49.968721
9118   0  1  7.137293 44.271243 52.823742
9119   0  1  7.137375 44.271162 55.678741
9120   0  1  7.137085 47.126847  1.427459
9121   0  1  7.137001 47.126938  4.282362
9122   0  1  7.136894 47.127084  7.137255
9123   0  1  7.137022 47.127005  9.992516
9124   0  1  7.137188 47.126760 12.848073
9125   0  1  7.137320 47.126572 15.703637
9126   0  1  7.137422 47.126436 18.559156
9127   0  1  7.137499 47.126335 21.414623
9128   0  1  7.137551 47.126268 24.270043
9129   0  1  7.137577 47.126234 27.125432
9130   0  1  7.137577 47.126234 29.980809
9131   0  1  7.137551 47.126268 32.836198
9132   0  1  7.137499 47.126335 35.691619
9133   0  1  7.137422 47.126436 38.547085
9134   0  1  7.137320 47.126572 41.402604
9135   0  1  7.137188 47.126760 44.258168
9136   0  1  7.137022 47.127005 47.113726
9137   0  1  7.136894 47.127084 49.968986
9138   0  1  7.137001 47.126938 52.823880
9139   0  1  7.137085 47.126847 55.678782
9140   0  1  7.136370 49.982826  1.427364
9141   0  1  7.136299 49.982897  4.282057
9142   0  1  7.136086 49.983109  7.136450
9143   0  1  7.136978 49.982218  9.992536
9144   0  1  7.137330 49.981866 12.848270
9145   0  1  7.137497 49.981699 15.703831
9146   0  1  7.137599 49.981597 18.559307
9147   0  1  7.137668 49.981528 21.414725
9148   0  1  7.137712 49.981483 24.270101
9149   0  1  7.137734 49.981461 27.125451
9150   0  1  7.137734 49.981461 29.980791
9151   0  1  7.137712 49.981483 32.836140
9152   0  1  7.137668 49.981528 35.691516
9153   0  1  7.137599 49.981597 38.546934
9154   0  1  7.137497 49.981699 41.402410
9155   0  1  7.137330 49.981866 44.257971
9156   0  1  7.136978 49.982218 47.113705
9157   0  1  7.136086 49.983109 49.969792
9158   0  1  7.136299 49.982896 52.824184
9159   0  1  7.136370 49.982826 55.678878
9160   0  1  7.136817 52.837490  1.427329
9161   0  1  7.136452 52.837761  4.281772
9162   0  1  7.136393 52.837424  7.136739
9163   0  1  7.137178 52.837064  9.992767
9164   0  1  7.137538 52.836872 12.848486
9165   0  1  7.137708 52.836774 15.704010
9166   0  1  7.137808 52.836714 18.559441
9167   0  1  7.137874 52.836673 21.414816
9168   0  1  7.137916 52.836648 24.270153
9169   0  1  7.137937 52.836635 27.125467
9170   0  1  7.137937 52.836635 29.980774
9171   0  1  7.137916 52.836648 32.836088
9172   0  1  7.137874 52.836673 35.691425
9173   0  1  7.137808 52.836714 38.546800
9174   0  1  7.137708 52.836774 41.402231
9175   0  1  7.137538 52.836872 44.257756
9176   0  1  7.137178 52.837064 47.113475
9177   0  1  7.136393 52.837424 49.969502
9178   0  1  7.136452 52.837761 52.824469
9179   0  1  7.136817 52.837490 55.678912
9180   0  1  7.138061 55.691739  1.427687
9181   0  1  7.136911 55.692084  4.282087
9182   0  1  7.136562 55.692038  7.136875
9183   0  1  7.137365 55.691930  9.992930
9184   0  1  7.137726 55.691876 12.848638
9185   0  1  7.137896 55.691849 15.704137
9186   0  1  7.137996 55.691831 18.559538
9187   0  1  7.138062 55.691818 21.414883
9188   0  1  7.138104 55.691809 24.270192
9189   0  1  7.138125 55.691805 27.125480
9190   0  1  7.138125 55.691805 29.980761
9191   0  1  7.138104 55.691809 32.836049
9192   0  1  7.138062 55.691818 35.691358
9193   0  1  7.137996 55.691831 38.546703
9194   0  1  7.137896 55.691849 41.402104
9195   0  1  7.137726 55.691876 44.257603
9196   0  1  7.137365 55.691930 47.113311
9197   0  1  7.136562 55.692038 49.969367
9198   0  1  7.136911 55.692084 52.824154
9199   0  1  7.138061 55.691739 55.678555
9200   0  1  9.993247  1.440641  1.427591
9201   0  1  9.992945  1.440596  4.282670
9202   0  1  9.992619  1.440598  7.137670
9203   0  1  9.992665  1.440640  9.992956
9204   0  1  9.992988  1.440695 12.848553
9205   0  1  9.993227  1.440735 15.704084
9206   0  1  9.993385  1.440761 18.559519
9207   0  1  9.993491  1.440777 21.414882
9208   0  1  9.993558  1.440785 24.270197
9209   0  1  9.993591  1.440789 27.125483
9210   0  1  9.993591  1.440789 29.980759
9211   0  1  9.993558  1.440785 32.836044
9212   0  1  9.993491  1.440777 35.691359
9213   0  1  9.993385  1.440761 38.546722
9214   0  1  9.993227  1.440735 41.402157
9215   0  1  9.992988  1.440695 44.257688
9216   0  1  9.992665  1.440640 47.113285
9217   0  1  9.992619  1.440598 49.968572
9218   0  1  9.992945  1.440596 52.823571
9219   0  1  9.993247  1.440641 55.678651
9220   0  1  9.992979  4.295541  1.427540
9221   0  1  9.992839  4.295470  4.282598
9222   0  1  9.992607  4.295455  7.137633
9223   0  1  9.992698  4.295569  9.992954
9224   0  1  9.993030  4.295720 12.848558
9225   0  1  9.993279  4.295835 15.704098
9226   0  1  9.993447  4.295916 18.559540
9227   0  1  9.993561  4.295969 21.414905
9228   0  1  9.993633  4.296002 24.270213
9229   0  1  9.993668  4.296017 27.125489
9230   0  1  9.993668  4.296017 29.980753
9231   0  1  9.993633  4.296002 32.836028
9232   0  1  9.993561  4.295969 35.691337
9233   0  1  9.993447  4.295916 38.546701
9234   0  1  9.993279  4.295835 41.402143
9235   0  1  9.993030  4.295720 44.257683
9236   0  1  9.992698  4.295569 47.113287
9237   0  1  9.992607  4.295455 49.968608
9238   0  1  9.992839  4.295470 52.823643
9239   0  1  9.992979  4.295541 55.678701
9240   0  1  9.992650  7.150374  1.427519
9241   0  1  9.992597  7.150332  4.282541
9242   0  1  9.992521  7.150299  7.137549
9243   0  1  9.992688  7.150517  9.992899
9244   0  1  9.993018  7.150764 12.848501
9245   0  1  9.993273  7.150956 15.704056
9246   0  1  9.993454  7.151094 18.559520
9247   0  1  9.993580  7.151191 21.414901
9248   0  1  9.993660  7.151251 24.270216
9249   0  1  9.993699  7.151280 27.125491
9250   0  1  9.993699  7.151280 29.980751
9251   0  1  9.993660  7.151251 32.836025
9252   0  1  9.993580  7.151191 35.691340
9253   0  1  9.993454  7.151094 38.546721
9254   0  1  9.993273  7.150956 41.402185
9255   0  1  9.993018  7.150764 44.257741
9256   0  1  9.992688  7.150517 47.113342
9257   0  1  9.992521  7.150299 49.968693
9258   0  1  9.992597  7.150332 52.823700
9259   0  1  9.992650  7.150374 55.678722
9260   0  1  9.992657 10.005523  1.427526
9261   0  1  9.992635 10.005501  4.282579
9262   0  1  9.992625 10.005491  7.137658
9263   0  1  9.992703 10.005569  9.992862
9264   0  1  9.992990 10.005856 12.848415
9265   0  1  9.993235 10.006101 15.703975
9266   0  1  9.993427 10.006293 18.559469
9267   0  1  9.993569 10.006435 21.414878
9268   0  1  9.993661 10.006527 24.270210
9269   0  1  9.993706 10.006572 27.125490
9270   0  1  9.993706 10.006572 29.980752
9271   0  1  9.993661 10.006527 32.836032
9272   0  1  9.993569 10.006435 35.691363
9273   0  1  9.993427 10.006293 38.546772
9274   0  1  9.993235 10.006101 41.402266
9275   0  1  9.992990 10.005856 44.257827
9276   0  1  9.992703 10.005569 47.113379
9277   0  1  9.992625 10.005491 49.968583
9278   0  1  9.992635 10.005501 52.823662
9279   0  1  9.992657 10.005523 55.678715
9280   0  1  9.992910 12.861023  1.427543
9281   0  1  9.992878 12.860992  4.282633
9282   0  1  9.992843 12.860952  7.137755
9283   0  1  9.992860 12.860955  9.992965
9284   0  1  9.992994 12.861081 12.848363
9285   0  1  9.993189 12.861294 15.703884
9286   0  1  9.993386 12.861515 18.559401
9287   0  1  9.993548 12.861700 21.414843
9288   0  1  9.993658 12.861828 24.270198
9289   0  1  9.993711 12.861893 27.125488
9290   0  1  9.993711 12.861893 29.980754
9291   0  1  9.993658 12.861828 32.836043
9292   0  1  9.993548 12.861700 35.691398
9293   0  1  9.993386 12.861515 38.546841
9294   0  1  9.993189 12.861294 41.402357
9295   0  1  9.992994 12.861081 44.257878
9296   0  1  9.992860 12.860955 47.113276
9297   0  1  9.992843 12.860952 49.968487
9298   0  1  9.992878 12.860992 52.823608
9299   0  1  9.992910 12.861023 55.678698
9300   0  1  9.993057 15.716513  1.427547
9301   0  1  9.993014 15.716474  4.282646
9302   0  1  9.992952 15.716414  7.137775
9303   0  1  9.992922 15.716371  9.992979
9304   0  1  9.992980 15.716406 12.848318
9305   0  1  9.993136 15.716552 15.703795
9306   0  1  9.993345 15.716773 18.559327
9307   0  1  9.993537 15.716994 21.414805
9308   0  1  9.993672 15.717162 24.270186
9309   0  1  9.993740 15.717251 27.125486
9310   0  1  9.993740 15.717251 29.980755
9311   0  1  9.993672 15.717162 32.836055
9312   0  1  9.993537 15.716994 35.691436
9313   0  1  9.993345 15.716773 38.546915
9314   0  1  9.993136 15.716552 41.402446
9315   0  1  9.992980 15.716406 44.257924
9316   0  1  9.992922 15.716371 47.113263
9317   0  1  9.992952 15.716414 49.968467
9318   0  1  9.993014 15.716474 52.823595
9319   0  1  9.993057 15.716513 55.678695
9320   0  1  9.993114 18.571966  1.427543
9321   0  1  9.993060 18.571926  4.282632
9322   0  1  9.992976 18.571859  7.137748
9323   0  1  9.992911 18.571793  9.992931
9324   0  1  9.992931 18.571780 12.848241
9325   0  1  9.993077 18.571874 15.703700
9326   0  1  9.993314 18.572080 18.559248
9327   0  1  9.993556 18.572333 21.414765
9328   0  1  9.993733 18.572547 24.270176
9329   0  1  9.993822 18.572665 27.125485
9330   0  1  9.993822 18.572665 29.980756
9331   0  1  9.993733 18.572547 32.836066
9332   0  1  9.993556 18.572333 35.691476
9333   0  1  9.993314 18.572080 38.546993
9334   0  1  9.993077 18.571874 41.402541
9335   0  1  9.992931 18.571780 44.258000
9336   0  1  9.992911 18.571793 47.113310
9337   0  1  9.992976 18.571859 49.968493
9338   0  1  9.993060 18.571926 52.823609
9339   0  1  9.993114 18.571966 55.678699
9340   0  1  9.993122 21.427407  1.427535
9341   0  1  9.993058 21.427370  4.282609
9342   0  1  9.992952 21.427304  7.137703
9343   0  1  9.992859 21.427232  9.992859
9344   0  1  9.992857 21.427198 12.848143
9345   0  1  9.993009 21.427257 15.703591
9346   0  1  9.993289 21.427438 18.559151
9347   0  1  9.993597 21.427707 21.414706
9348   0  1  9.993832 21.427966 24.270153
9349   0  1  9.993952 21.428120 27.125481
9350   0  1  9.993952 21.428120 29.980760
9351   0  1  9.993832 21.427966 32.836088
9352   0  1  9.993597 21.427707 35.691535
9353   0  1  9.993289 21.427438 38.547090
9354   0  1  9.993009 21.427257 41.402650
9355   0  1  9.992857 21.427198 44.258098
9356   0  1  9.992859 21.427232 47.113382
9357   0  1  9.992952 21.427304 49.968539
9358   0  1  9.993058 21.427370 52.823633
9359   0  1  9.993122 21.427407 55.678706
9360   0  1  9.993100 24.282849  1.427528
9361   0  1  9.993026 24.282819  4.282583
9362   0  1  9.992902 24.282764  7.137653
9363   0  1  9.992783 24.282700  9.992780
9364   0  1  9.992764 24.282662 12.848037
9365   0  1  9.992925 24.282700 15.703471
9366   0  1  9.993247 24.282847 18.559031
9367   0  1  9.993617 24.283093 21.414600
9368   0  1  9.993912 24.283370 24.270086
9369   0  1  9.994066 24.283551 27.125459
9370   0  1  9.994066 24.283551 29.980782
9371   0  1  9.993912 24.283370 32.836155
9372   0  1  9.993617 24.283093 35.691641
9373   0  1  9.993247 24.282846 38.547210
9374   0  1  9.992925 24.282700 41.402770
9375   0  1  9.992764 24.282662 44.258204
9376   0  1  9.992783 24.282700 47.113461
9377   0  1  9.992902 24.282764 49.968588
9378   0  1  9.993026 24.282819 52.823658
9379   0  1  9.993100 24.282849 55.678714
9380   0  1  9.993059 27.138299  1.427520
9381   0  1  9.992976 27.138280  4.282557
9382   0  1  9.992834 27.138244  7.137604
9383   0  1  9.992690 27.138202  9.992701
9384   0  1  9.992652 27.138178 12.847929
9385   0  1  9.992814 27.138207 15.703342
9386   0  1  9.993162 27.138317 18.558889
9387   0  1  9.993569 27.138506 21.414451
9388   0  1  9.993901 27.138732 24.269957
9389   0  1  9.994083 27.138900 27.125408
9390   0  1  9.994083 27.138900 29.980833
9391   0  1  9.993901 27.138732 32.836285
9392   0  1  9.993569 27.138506 35.691790
9393   0  1  9.993162 27.138317 38.547353
9394   0  1  9.992814 27.138207 41.402899
9395   0  1  9.992652 27.138178 44.258313
9396   0  1  9.992690 27.138202 47.113540
9397   0  1  9.992834 27.138244 49.968638
9398   0  1  9.992976 27.138280 52.823684
9399   0  1  9.993059 27.138299 55.678721
9400   0  1  9.993004 29.993760  1.427512
9401   0  1  9.992912 29.993756  4.282532
9402   0  1  9.992752 29.993748  7.137556
9403   0  1  9.992585 29.993742  9.992623
9404   0  1  9.992520 29.993749 12.847819
9405   0  1  9.992666 29.993786 15.703204
9406   0  1  9.993012 29.993864 18.558731
9407   0  1  9.993425 29.993976 21.414285
9408   0  1  9.993764 29.994093 24.269813
9409   0  1  9.993948 29.994168 27.125344
9410   0  1  9.993948 29.994168 29.980898
9411   0  1  9.993764 29.994093 32.836429
9412   0  1  9.993425 29.993976 35.691956
9413   0  1  9.993012 29.993864 38.547510
9414   0  1  9.992666 29.993785 41.403037
9415   0  1  9.992520 29.993749 44.258423
9416   0  1  9.992585 29.993742 47.113618
9417   0  1  9.992752 29.993748 49.968686
9418   0  1  9.992912 29.993756 52.823709
9419   0  1  9.993004 29.993760 55.678729
9420   0  1  9.992936 32.849236  1.427504
9421   0  1  9.992838 32.849251  4.282507
9422   0  1  9.992662 32.849280  7.137508
9423   0  1  9.992470 32.849322  9.992548
9424   0  1  9.992374 32.849376 12.847711
9425   0  1  9.992483 32.849434 15.703066
9426   0  1  9.992792 32.849486 18.558577
9427   0  1  9.993174 32.849513 21.414145
9428   0  1  9.993489 32.849494 24.269722
9429   0  1  9.993658 32.849451 27.125319
9430   0  1  9.993658 32.849451 29.980922
9431   0  1  9.993489 32.849494 32.836519
9432   0  1  9.993174 32.849513 35.692096
9433   0  1  9.992792 32.849486 38.547664
9434   0  1  9.992483 32.849434 41.403175
9435   0  1  9.992374 32.849376 44.258531
9436   0  1  9.992470 32.849322 47.113694
9437   0  1  9.992662 32.849280 49.968733
9438   0  1  9.992838 32.849251 52.823734
9439   0  1  9.992936 32.849236 55.678737
9440   0  1  9.992860 35.704729  1.427496
9441   0  1  9.992755 35.704765  4.282482
9442   0  1  9.992568 35.704837  7.137464
9443   0  1  9.992355 35.704937  9.992479
9444   0  1  9.992225 35.705046 12.847616
9445   0  1  9.992283 35.705131 15.702951
9446   0  1  9.992527 35.705155 18.558466
9447   0  1  9.992845 35.705092 21.414077
9448   0  1  9.993110 35.704962 24.269713
9449   0  1  9.993251 35.704862 27.125323
9450   0  1  9.993251 35.704862 29.980918
9451   0  1  9.993110 35.704962 32.836529
9452   0  1  9.992845 35.705092 35.692165
9453   0  1  9.992527 35.705155 38.547775
9454   0  1  9.992283 35.705131 41.403290
9455   0  1  9.992225 35.705046 44.258625
9456   0  1  9.992355 35.704937 47.113762
9457   0  1  9.992568 35.704837 49.968778
9458   0  1  9.992755 35.704765 52.823759
9459   0  1  9.992860 35.704729 55.678745
9460   0  1  9.992773 38.560239  1.427489
9461   0  1  9.992666 38.560299  4.282458
9462   0  1  9.992473 38.560413  7.137424
9463   0  1  9.992251 38.560567  9.992427
9464   0  1  9.992099 38.560720 12.847557
9465   0  1  9.992111 38.560812 15.702900
9466   0  1  9.992285 38.560791 18.558447
9467   0  1  9.992526 38.560657 21.414102
9468   0  1  9.992722 38.560498 24.269744
9469   0  1  9.992825 38.560397 27.125337
9470   0  1  9.992825 38.560397 29.980905
9471   0  1  9.992722 38.560498 32.836497
9472   0  1  9.992526 38.560657 35.692139
9473   0  1  9.992285 38.560791 38.547794
9474   0  1  9.992111 38.560812 41.403341
9475   0  1  9.992099 38.560720 44.258684
9476   0  1  9.992251 38.560567 47.113815
9477   0  1  9.992473 38.560413 49.968817
9478   0  1  9.992666 38.560299 52.823783
9479   0  1  9.992773 38.560239 55.678753
9480   0  1  9.992665 41.415774  1.427480
9481   0  1  9.992561 41.415851  4.282434
9482   0  1  9.992376 41.415996  7.137389
9483   0  1  9.992170 41.416177  9.992396
9484   0  1  9.992034 41.416327 12.847559
9485   0  1  9.992038 41.416373 15.702956
9486   0  1  9.992168 41.416291 18.558546
9487   0  1  9.992334 41.416144 21.414190
9488   0  1  9.992466 41.416008 24.269798
9489   0  1  9.992535 41.415930 27.125354
9490   0  1  9.992535 41.415930 29.980888
9491   0  1  9.992466 41.416008 32.836443
9492   0  1  9.992334 41.416144 35.692051
9493   0  1  9.992168 41.416291 38.547695
9494   0  1  9.992038 41.416373 41.403286
9495   0  1  9.992034 41.416327 44.258682
9496   0  1  9.992170 41.416177 47.113845
9497   0  1  9.992376 41.415996 49.968852
9498   0  1  9.992561 41.415851 52.823807
9499   0  1  9.992665 41.415774 55.678761
9500   0  1  9.992504 44.271344  1.427469
9501   0  1  9.992413 44.271427  4.282404
9502   0  1  9.992257 44.271572  7.137349
9503   0  1  9.992106 44.271725  9.992378
9504   0  1  9.992062 44.271780 12.847639
9505   0  1  9.992120 44.271719 15.703130
9506   0  1  9.992235 44.271600 18.558726
9507   0  1  9.992355 44.271472 21.414322
9508   0  1  9.992446 44.271371 24.269872
9509   0  1  9.992493 44.271316 27.125377
9510   0  1  9.992493 44.271316 29.980864
9511   0  1  9.992446 44.271371 32.836370
9512   0  1  9.992355 44.271472 35.691919
9513   0  1  9.992235 44.271600 38.547516
9514   0  1  9.992120 44.271719 41.403111
9515   0  1  9.992062 44.271780 44.258602
9516   0  1  9.992106 44.271725 47.113863
9517   0  1  9.992257 44.271572 49.968892
9518   0  1  9.992413 44.271427 52.823838
9519   0  1  9.992504 44.271344 55.678772
9520   0  1  9.992282 47.126914  1.427455
9521   0  1  9.992209 47.126987  4.282359
9522   0  1  9.992098 47.127098  7.137285
9523   0  1  9.992043 47.127153  9.992349
9524   0  1  9.992197 47.126998 12.847818
9525   0  1  9.992338 47.126858 15.703378
9526   0  1  9.992463 47.126733 18.558944
9527   0  1  9.992566 47.126629 21.414475
9528   0  1  9.992639 47.126556 24.269959
9529   0  1  9.992677 47.126519 27.125405
9530   0  1  9.992677 47.126519 29.980837
9531   0  1  9.992639 47.126556 32.836283
9532   0  1  9.992566 47.126629 35.691766
9533   0  1  9.992463 47.126733 38.547297
9534   0  1  9.992338 47.126858 41.402863
9535   0  1  9.992197 47.126998 44.258423
9536   0  1  9.992043 47.127153 47.113892
9537   0  1  9.992098 47.127098 49.968956
9538   0  1  9.992209 47.126987 52.823882
9539   0  1  9.992282 47.126914 55.678787
9540   0  1  9.992348 49.982110  1.427459
9541   0  1  9.992257 49.982195  4.282362
9542   0  1  9.992112 49.982302  7.137255
9543   0  1  9.992190 49.982173  9.992516
9544   0  1  9.992436 49.982007 12.848073
9545   0  1  9.992623 49.981875 15.703637
9546   0  1  9.992760 49.981773 18.559156
9547   0  1  9.992860 49.981696 21.414623
9548   0  1  9.992927 49.981644 24.270043
9549   0  1  9.992961 49.981618 27.125432
9550   0  1  9.992961 49.981618 29.980809
9551   0  1  9.992927 49.981644 32.836198
9552   0  1  9.992860 49.981696 35.691619
9553   0  1  9.992760 49.981773 38.547085
9554   0  1  9.992623 49.981875 41.402604
9555   0  1  9.992436 49.982007 44.258168
9556   0  1  9.992190 49.982173 47.113726
9557   0  1  9.992112 49.982302 49.968986
9558   0  1  9.992257 49.982195 52.823880
9559   0  1  9.992348 49.982110 55.678782
9560   0  1  9.992784 52.836971  1.427500
9561   0  1  9.992622 52.837070  4.282482
9562   0  1  9.992350 52.837131  7.137449
9563   0  1  9.992394 52.837069  9.992722
9564   0  1  9.992680 52.836961 12.848305
9565   0  1  9.992893 52.836874 15.703854
9566   0  1  9.993037 52.836809 18.559329
9567   0  1  9.993138 52.836760 21.414743
9568   0  1  9.993203 52.836727 24.270113
9569   0  1  9.993236 52.836711 27.125455
9570   0  1  9.993236 52.836711 29.980787
9571   0  1  9.993203 52.836727 32.836128
9572   0  1  9.993138 52.836760 35.691498
9573   0  1  9.993037 52.836809 38.546913
9574   0  1  9.992893 52.836874 41.402388
9575   0  1  9.992680 52.836961 44.257936
9576   0  1  9.992394 52.837069 47.113520
9577   0  1  9.992350 52.837131 49.968792
9578   0  1  9.992622 52.837070 52.823760
9579   0  1  9.992784 52.836971 55.678741
9580   0  1  9.993180 55.691882  1.427577
9581   0  1  9.992870 55.691945  4.282630
9582   0  1  9.992532 55.691973  7.137607
9583   0  1  9.992563 55.691962  9.992879
9584   0  1  9.992872 55.691932 12.848469
9585   0  1  9.993100 55.691905 15.704004
9586   0  1  9.993250 55.691882 18.559450
9587   0  1  9.993352 55.691864 21.414830
9588   0  1  9.993417 55.691851 24.270164
9589   0  1  9.993450 55.691844 27.125472
9590   0  1  9.993450 55.691844 29.980770
9591   0  1  9.993417 55.691851 32.836077
9592   0  1  9.993352 55.691864 35.691411
9593   0  1  9.993250 55.691882 38.546791
9594   0  1  9.993100 55.691905 41.402237
9595   0  1  9.992872 55.691932 44.257772
9596   0  1  9.992563 55.691962 47.113363
9597   0  1  9.992532 55.691973 49.968634
9598   0  1  9.992870 55.691945 52.823611
9599   0  1  9.993180 55.691882 55.678665
9600   0  1 12.848522  1.440666  1.427600
9601   0  1 12.848417  1.440658  4.282789
9602   0  1 12.848266  1.440659  7.137957
9603   0  1 12.848195  1.440675  9.993178
9604   0  1 12.848298  1.440705 12.848550
9605   0  1 12.848495  1.440737 15.704017
9606   0  1 12.848674  1.440761 18.559458
9607   0  1 12.848809  1.440776 21.414842
9608   0  1 12.848899  1.440784 24.270175
9609   0  1 12.848944  1.440788 27.125476
9610   0  1 12.848944  1.440788 29.980765
9611   0  1 12.848899  1.440784 32.836066
9612   0  1 12.848809  1.440776 35.691400
9613   0  1 12.848674  1.440761 38.546784
9614   0  1 12.848495  1.440737 41.402224
9615   0  1 12.848298  1.440705 44.257691
9616   0  1 12.848195  1.440675 47.113063
9617   0  1 12.848266  1.440659 49.968284
9618   0  1 12.848417  1.440658 52.823452
9619   0  1 12.848522  1.440666 55.678641
9620   0  1 12.848437  4.295682  1.427586
9621   0  1 12.848365  4.295651  4.282755
9622   0  1 12.848247  4.295632  7.137927
9623   0  1 12.848205  4.295662  9.993167
9624   0  1 12.848323  4.295740 12.848557
9625   0  1 12.848531  4.295833 15.704036
9626   0  1 12.848721  4.295914 18.559485
9627   0  1 12.848866  4.295973 21.414870
9628   0  1 12.848963  4.296011 24.270196
9629   0  1 12.849012  4.296028 27.125484
9630   0  1 12.849012  4.296028 29.980758
9631   0  1 12.848963  4.296011 32.836045
9632   0  1 12.848866  4.295973 35.691371
9633   0  1 12.848721  4.295914 38.546756
9634   0  1 12.848531  4.295833 41.402205
9635   0  1 12.848323  4.295740 44.257684
9636   0  1 12.848205  4.295662 47.113074
9637   0  1 12.848247  4.295632 49.968315
9638   0  1 12.848365  4.295651 52.823487
9639   0  1 12.848437  4.295682 55.678656
9640   0  1 12.848273  7.150690  1.427562
9641   0  1 12.848227  7.150655  4.282688
9642   0  1 12.848162  7.150624  7.137835
9643   0  1 12.848156  7.150666  9.993082
9644   0  1 12.848287  7.150787 12.848488
9645   0  1 12.848503  7.150940 15.703989
9646   0  1 12.848707  7.151080 18.559465
9647   0  1 12.848868  7.151188 21.414869
9648   0  1 12.848977  7.151259 24.270203
9649   0  1 12.849032  7.151293 27.125487
9650   0  1 12.849032  7.151293 29.980754
9651   0  1 12.848977  7.151259 32.836039
9652   0  1 12.848868  7.151188 35.691372
9653   0  1 12.848707  7.151080 38.546777
9654   0  1 12.848503  7.150940 41.402252
9655   0  1 12.848287  7.150787 44.257753
9656   0  1 12.848156  7.150666 47.113159
9657   0  1 12.848162  7.150624 49.968406
9658   0  1 12.848227  7.150655 52.823554
9659   0  1 12.848273  7.150690 55.678679
9660   0  1 12.848157 10.005776  1.427543
9661   0  1 12.848126 10.005744  4.282633
9662   0  1 12.848086 10.005709  7.137755
9663   0  1 12.848089 10.005726  9.992965
9664   0  1 12.848215 10.005860 12.848363
9665   0  1 12.848428 10.006055 15.703884
9666   0  1 12.848649 10.006252 18.559401
9667   0  1 12.848834 10.006414 21.414843
9668   0  1 12.848962 10.006524 24.270198
9669   0  1 12.849027 10.006577 27.125488
9670   0  1 12.849027 10.006577 29.980754
9671   0  1 12.848962 10.006524 32.836043
9672   0  1 12.848834 10.006414 35.691398
9673   0  1 12.848649 10.006252 38.546841
9674   0  1 12.848428 10.006055 41.402357
9675   0  1 12.848215 10.005860 44.257878
9676   0  1 12.848089 10.005726 47.113276
9677   0  1 12.848086 10.005709 49.968487
9678   0  1 12.848126 10.005744 52.823608
9679   0  1 12.848157 10.005776 55.678698
9680   0  1 12.848187 12.861053  1.427532
9681   0  1 12.848150 12.861016  4.282601
9682   0  1 12.848097 12.860963  7.137699
9683   0  1 12.848072 12.860938  9.992879
9684   0  1 12.848139 12.861005 12.848216
9685   0  1 12.848329 12.861195 15.703733
9686   0  1 12.848568 12.861433 18.559298
9687   0  1 12.848788 12.861654 21.414796
9688   0  1 12.848945 12.861811 24.270186
9689   0  1 12.849025 12.861891 27.125487
9690   0  1 12.849025 12.861891 29.980755
9691   0  1 12.848945 12.861811 32.836056
9692   0  1 12.848788 12.861654 35.691445
9693   0  1 12.848568 12.861433 38.546944
9694   0  1 12.848329 12.861195 41.402508
9695   0  1 12.848139 12.861005 44.258025
9696   0  1 12.848072 12.860938 47.113363
9697   0  1 12.848097 12.860963 49.968542
9698   0  1 12.848150 12.861016 52.823640
9699   0  1 12.848187 12.861053 55.678709
9700   0  1 12.848290 15.716476  1.427526
9701   0  1 12.848238 15.716430  4.282580
9702   0  1 12.848152 15.716351  7.137652
9703   0  1 12.848072 15.716273  9.992787
9704   0  1 12.848066 15.716257 12.848063
9705   0  1 12.848204 15.716377 15.703545
9706   0  1 12.848460 15.716622 18.559155
9707   0  1 12.848731 15.716899 21.414729
9708   0  1 12.848934 15.717116 24.270168
9709   0  1 12.849036 15.717230 27.125486
9710   0  1 12.849036 15.717230 29.980756
9711   0  1 12.848934 15.717116 32.836073
9712   0  1 12.848731 15.716899 35.691512
9713   0  1 12.848460 15.716622 38.547086
9714   0  1 12.848204 15.716377 41.402696
9715   0  1 12.848066 15.716257 44.258178
9716   0  1 12.848072 15.716273 47.113454
9717   0  1 12.848152 15.716351 49.968589
9718   0  1 12.848238 15.716430 52.823661
9719   0  1 12.848290 15.716476 55.678715
9720   0  1 12.848365 18.571933  1.427521
9721   0  1 12.848298 18.571883  4.282560
9722   0  1 12.848178 18.571789  7.137602
9723   0  1 12.848041 18.571673  9.992683
9724   0  1 12.847962 18.571586 12.847887
9725   0  1 12.848047 18.571621 15.703320
9726   0  1 12.848329 18.571843 18.558970
9727   0  1 12.848681 18.572176 21.414640
9728   0  1 12.848957 18.572471 24.270149
9729   0  1 12.849098 18.572636 27.125486
9730   0  1 12.849098 18.572636 29.980755
9731   0  1 12.848957 18.572471 32.836092
9732   0  1 12.848681 18.572176 35.691601
9733   0  1 12.848329 18.571843 38.547271
9734   0  1 12.848047 18.571621 41.402921
9735   0  1 12.847962 18.571586 44.258354
9736   0  1 12.848041 18.571673 47.113558
9737   0  1 12.848178 18.571789 49.968640
9738   0  1 12.848298 18.571883 52.823682
9739   0  1 12.848365 18.571933 55.678720
9740   0  1 12.848398 21.427391  1.427516
9741   0  1 12.848318 21.427344  4.282539
9742   0  1 12.848169 21.427252  7.137552
9743   0  1 12.847981 21.427126  9.992581
9744   0  1 12.847836 21.427002 12.847711
9745   0  1 12.847880 21.426975 15.703085
9746   0  1 12.848200 21.427150 18.558748
9747   0  1 12.848675 21.427528 21.414517
9748   0  1 12.849072 21.427928 24.270119
9749   0  1 12.849276 21.428168 27.125487
9750   0  1 12.849276 21.428168 29.980755
9751   0  1 12.849072 21.427928 32.836122
9752   0  1 12.848675 21.427528 35.691724
9753   0  1 12.848200 21.427150 38.547494
9754   0  1 12.847880 21.426975 41.403156
9755   0  1 12.847836 21.427002 44.258530
9756   0  1 12.847981 21.427126 47.113661
9757   0  1 12.848169 21.427252 49.968689
9758   0  1 12.848318 21.427344 52.823702
9759   0  1 12.848398 21.427391 55.678726
9760   0  1 12.848397 24.282850  1.427511
9761   0  1 12.848307 24.282813  4.282520
9762   0  1 12.848132 24.282737  7.137505
9763   0  1 12.847899 24.282627  9.992485
9764   0  1 12.847697 24.282508 12.847547
9765   0  1 12.847710 24.282460 15.702862
9766   0  1 12.848074 24.282590 18.558509
9767   0  1 12.848669 24.282943 21.414317
9768   0  1 12.849218 24.283421 24.270021
9769   0  1 12.849511 24.283750 27.125463
9770   0  1 12.849511 24.283750 29.980778
9771   0  1 12.849218 24.283421 32.836220
9772   0  1 12.848669 24.282943 35.691924
9773   0  1 12.848074 24.282590 38.547733
9774   0  1 12.847710 24.282460 41.403380
9775   0  1 12.847697 24.282508 44.258694
9776   0  1 12.847899 24.282627 47.113756
9777   0  1 12.848132 24.282737 49.968736
9778   0  1 12.848307 24.282813 52.823721
9779   0  1 12.848397 24.282850 55.678731
9780   0  1 12.848369 27.138313  1.427505
9781   0  1 12.848269 27.138291  4.282500
9782   0  1 12.848070 27.138245  7.137460
9783   0  1 12.847798 27.138176  9.992396
9784   0  1 12.847542 27.138100 12.847394
9785   0  1 12.847521 27.138073 15.702649
9786   0  1 12.847909 27.138177 18.558262
9787   0  1 12.848583 27.138454 21.414052
9788   0  1 12.849225 27.138855 24.269777
9789   0  1 12.849603 27.139204 27.125370
9790   0  1 12.849603 27.139204 29.980871
9791   0  1 12.849225 27.138855 32.836464
9792   0  1 12.848583 27.138454 35.692189
9793   0  1 12.847909 27.138177 38.547979
9794   0  1 12.847521 27.138073 41.403592
9795   0  1 12.847542 27.138100 44.258847
9796   0  1 12.847798 27.138176 47.113846
9797   0  1 12.848070 27.138245 49.968781
9798   0  1 12.848269 27.138291 52.823741
9799   0  1 12.848369 27.138313 55.678736
9800   0  1 12.848318 29.993787  1.427499
9801   0  1 12.848208 29.993785  4.282477
9802   0  1 12.847988 29.993781  7.137412
9803   0  1 12.847678 29.993775  9.992307
9804   0  1 12.847370 29.993776 12.847247
9805   0  1 12.847298 29.993812 15.702441
9806   0  1 12.847666 29.993920 18.558006
9807   0  1 12.848346 29.994107 21.413764
9808   0  1 12.849001 29.994319 24.269495
9809   0  1 12.849381 29.994462 27.125220
9810   0  1 12.849381 29.994462 29.981021
9811   0  1 12.849001 29.994319 32.836746
9812   0  1 12.848346 29.994107 35.692477
9813   0  1 12.847666 29.993920 38.548236
9814   0  1 12.847298 29.993812 41.403801
9815   0  1 12.847370 29.993776 44.258994
9816   0  1 12.847678 29.993775 47.113935
9817   0  1 12.847988 29.993781 49.968829
9818   0  1 12.848208 29.993785 52.823764
9819   0  1 12.848318 29.993787 55.678743
9820   0  1 12.848248 32.849277  1.427490
9821   0  1 12.848129 32.849300  4.282450
9822   0  1 12.847890 32.849349  7.137359
9823   0  1 12.847546 32.849426  9.992217
9824   0  1 12.847186 32.849534 12.847108
9825   0  1 12.847046 32.849668 15.702243
9826   0  1 12.847334 32.849808 18.557762
9827   0  1 12.847935 32.849903 21.413521
9828   0  1 12.848519 32.849875 24.269338
9829   0  1 12.848844 32.849744 27.125196
9830   0  1 12.848844 32.849744 29.981045
9831   0  1 12.848519 32.849875 32.836903
9832   0  1 12.847935 32.849903 35.692720
9833   0  1 12.847334 32.849808 38.548479
9834   0  1 12.847046 32.849668 41.403998
9835   0  1 12.847186 32.849534 44.259134
9836   0  1 12.847546 32.849426 47.114024
9837   0  1 12.847890 32.849349 49.968882
9838   0  1 12.848129 32.849300 52.823791
9839   0  1 12.848248 32.849277 55.678751
9840   0  1 12.848161 35.704786  1.427480
9841   0  1 12.848036 35.704838  4.282419
9842   0  1 12.847784 35.704946  7.137304
9843   0  1 12.847417 35.705116  9.992135
9844   0  1 12.847016 35.705343 12.846995
9845   0  1 12.846801 35.705587 15.702099
9846   0  1 12.846969 35.705757 18.557610
9847   0  1 12.847426 35.705738 21.413436
9848   0  1 12.847880 35.705500 24.269381
9849   0  1 12.848122 35.705303 27.125228
9850   0  1 12.848122 35.705303 29.981013
9851   0  1 12.847880 35.705500 32.836860
9852   0  1 12.847426 35.705738 35.692805
9853   0  1 12.846969 35.705757 38.548632
9854   0  1 12.846801 35.705587 41.404142
9855   0  1 12.847016 35.705343 44.259247
9856   0  1 12.847417 35.705116 47.114106
9857   0  1 12.847784 35.704946 49.968937
9858   0  1 12.848036 35.704838 52.823822
9859   0  1 12.848161 35.704786 55.678761
9860   0  1 12.848061 38.560314  1.427470
9861   0  1 12.847936 38.560392  4.282388
9862   0  1 12.847682 38.560555  7.137257
9863   0  1 12.847315 38.560806  9.992082
9864   0  1 12.846908 38.561126 12.846954
9865   0  1 12.846655 38.561430 15.702092
9866   0  1 12.846726 38.561562 18.557667
9867   0  1 12.847042 38.561410 21.413579
9868   0  1 12.847332 38.561175 24.269478
9869   0  1 12.847485 38.561023 27.125258
9870   0  1 12.847485 38.561023 29.980983
9871   0  1 12.847332 38.561175 32.836764
9872   0  1 12.847042 38.561410 35.692663
9873   0  1 12.846726 38.561562 38.548574
9874   0  1 12.846655 38.561430 41.404149
9875   0  1 12.846908 38.561126 44.259288
9876   0  1 12.847315 38.560806 47.114160
9877   0  1 12.847682 38.560555 49.968984
9878   0  1 12.847936 38.560392 52.823853
9879   0  1 12.848061 38.560314 55.678772
9880   0  1 12.847950 41.415850  1.427461
9881   0  1 12.847832 41.415946  4.282365
9882   0  1 12.847599 41.416141  7.137234
9883   0  1 12.847272 41.416425  9.992089
9884   0  1 12.846927 41.416750 12.847042
9885   0  1 12.846728 41.416986 15.702304
9886   0  1 12.846790 41.416983 18.557975
9887   0  1 12.846980 41.416826 21.413807
9888   0  1 12.847151 41.416660 24.269594
9889   0  1 12.847243 41.416563 27.125291
9890   0  1 12.847243 41.416563 29.980950
9891   0  1 12.847151 41.416660 32.836648
9892   0  1 12.846980 41.416826 35.692434
9893   0  1 12.846790 41.416983 38.548267
9894   0  1 12.846728 41.416986 41.403938
9895   0  1 12.846927 41.416750 44.259200
9896   0  1 12.847272 41.416425 47.114152
9897   0  1 12.847599 41.416141 49.969007
9898   0  1 12.847832 41.415946 52.823876
9899   0  1 12.847950 41.415850 55.678780
9900   0  1 12.847845 44.271350  1.427458
9901   0  1 12.847746 44.271450  4.282363
9902   0  1 12.847557 44.271638  7.137256
9903   0  1 12.847315 44.271881  9.992185
9904   0  1 12.847105 44.272090 12.847283
9905   0  1 12.847049 44.272146 15.702705
9906   0  1 12.847133 44.272062 18.558360
9907   0  1 12.847272 44.271924 21.414071
9908   0  1 12.847390 44.271806 24.269733
9909   0  1 12.847453 44.271742 27.125333
9910   0  1 12.847453 44.271742 29.980908
9911   0  1 12.847390 44.271806 32.836509
9912   0  1 12.847272 44.271924 35.692171
9913   0  1 12.847133 44.272062 38.547881
9914   0  1 12.847049 44.272146 41.403537
9915   0  1 12.847105 44.272090 44.258958
9916   0  1 12.847315 44.271881 47.114056
9917   0  1 12.847557 44.271638 49.968985
9918   0  1 12.847746 44.271450 52.823878
9919   0  1 12.847845 44.271350 55.678783
9920   0  1 12.847851 47.126691  1.427469
9921   0  1 12.847769 47.126783  4.282404
9922   0  1 12.847623 47.126938  7.137349
9923   0  1 12.847470 47.127090  9.992378
9924   0  1 12.847416 47.127134 12.847639
9925   0  1 12.847476 47.127076 15.703130
9926   0  1 12.847595 47.126961 18.558726
9927   0  1 12.847724 47.126841 21.414322
9928   0  1 12.847825 47.126750 24.269872
9929   0  1 12.847879 47.126702 27.125377
9930   0  1 12.847879 47.126702 29.980864
9931   0  1 12.847825 47.126750 32.836370
9932   0  1 12.847724 47.126841 35.691919
9933   0  1 12.847595 47.126961 38.547516
9934   0  1 12.847476 47.127076 41.403111
9935   0  1 12.847416 47.127134 44.258602
9936   0  1 12.847470 47.127090 47.113863
9937   0  1 12.847623 47.126938 49.968892
9938   0  1 12.847769 47.126783 52.823838
9939   0  1 12.847851 47.126691 55.678772
9940   0  1 12.848033 49.981821  1.427501
9941   0  1 12.847952 49.981902  4.282500
9942   0  1 12.847817 49.982018  7.137520
9943   0  1 12.847715 49.982078  9.992654
9944   0  1 12.847742 49.982052 12.847991
9945   0  1 12.847870 49.981964 15.703488
9946   0  1 12.848015 49.981858 18.559021
9947   0  1 12.848143 49.981762 21.414526
9948   0  1 12.848237 49.981694 24.269988
9949   0  1 12.848287 49.981659 27.125414
9950   0  1 12.848287 49.981659 29.980827
9951   0  1 12.848237 49.981694 32.836253
9952   0  1 12.848143 49.981762 35.691715
9953   0  1 12.848015 49.981858 38.547221
9954   0  1 12.847870 49.981964 41.402753
9955   0  1 12.847742 49.982052 44.258250
9956   0  1 12.847715 49.982078 47.113587
9957   0  1 12.847817 49.982018 49.968721
9958   0  1 12.847952 49.981902 52.823742
9959   0  1 12.848033 49.981821 55.678741
9960   0  1 12.848285 52.836854  1.427545
9961   0  1 12.848193 52.836914  4.282633
9962   0  1 12.848037 52.836982  7.137730
9963   0  1 12.847945 52.837005  9.992912
9964   0  1 12.848011 52.836971 12.848271
9965   0  1 12.848175 52.836902 15.703752
9966   0  1 12.848334 52.836829 18.559235
9967   0  1 12.848463 52.836766 21.414677
9968   0  1 12.848553 52.836722 24.270075
9969   0  1 12.848599 52.836699 27.125442
9970   0  1 12.848599 52.836699 29.980799
9971   0  1 12.848553 52.836722 32.836166
9972   0  1 12.848463 52.836766 35.691564
9973   0  1 12.848334 52.836829 38.547006
9974   0  1 12.848175 52.836902 41.402489
9975   0  1 12.848011 52.836971 44.257970
9976   0  1 12.847945 52.837005 47.113329
9977   0  1 12.848037 52.836982 49.968511
9978   0  1 12.848193 52.836914 52.823609
9979   0  1 12.848285 52.836854 55.678696
9980   0  1 12.848470 55.691880  1.427586
9981   0  1 12.848359 55.691906  4.282747
9982   0  1 12.848196 55.691934  7.137891
9983   0  1 12.848110 55.691946  9.993094
9984   0  1 12.848197 55.691936 12.848457
9985   0  1 12.848380 55.691912 15.703925
9986   0  1 12.848550 55.691884 18.559377
9987   0  1 12.848680 55.691858 21.414779
9988   0  1 12.848768 55.691839 24.270136
9989   0  1 12.848812 55.691829 27.125463
9990   0  1 12.848812 55.691829 29.980779
9991   0  1 12.848768 55.691839 32.836105
9992   0  1 12.848680 55.691858 35.691462
9993   0  1 12.848550 55.691884 38.546864
9994   0  1 12.848380 55.691912 41.402316
9995   0  1 12.848197 55.691936 44.257784
9996   0  1 12.848110 55.691946 47.113147
9997   0  1 12.848196 55.691934 49.968350
9998   0  1 12.848359 55.691906 52.823494
9999   0  1 12.848470 55.691880 55.678655
10000  0  1 15.703855  1.440662  1.427605
10001  0  1 15.703812  1.440660  4.282820
10002  0  1 15.703746  1.440662  7.138049
10003  0  1 15.703701  1.440673  9.993308
10004  0  1 15.703731  1.440693 12.848628
10005  0  1 15.703848  1.440718 15.704016
10006  0  1 15.704004  1.440741 18.559427
10007  0  1 15.704147  1.440757 21.414811
10008  0  1 15.704252  1.440765 24.270156
10009  0  1 15.704306  1.440769 27.125469
10010  0  1 15.704306  1.440769 29.980772
10011  0  1 15.704252  1.440765 32.836086
10012  0  1 15.704147  1.440757 35.691430
10013  0  1 15.704004  1.440741 38.546815
10014  0  1 15.703848  1.440718 41.402225
10015  0  1 15.703731  1.440693 44.257613
10016  0  1 15.703701  1.440673 47.112934
10017  0  1 15.703746  1.440662 49.968193
10018  0  1 15.703812  1.440660 52.823421
10019  0  1 15.703855  1.440662 55.678636
10020  0  1 15.703820  4.295713  1.427596
10021  0  1 15.703782  4.295694  4.282794
10022  0  1 15.703723  4.295680  7.138015
10023  0  1 15.703689  4.295693  9.993280
10024  0  1 15.703732  4.295745 12.848618
10025  0  1 15.703863  4.295825 15.704026
10026  0  1 15.704036  4.295908 18.559453
10027  0  1 15.704195  4.295975 21.414843
10028  0  1 15.704312  4.296020 24.270181
10029  0  1 15.704372  4.296042 27.125479
10030  0  1 15.704372  4.296042 29.980763
10031  0  1 15.704312  4.296020 32.836061
10032  0  1 15.704195  4.295975 35.691399
10033  0  1 15.704036  4.295908 38.546789
10034  0  1 15.703863  4.295825 41.402215
10035  0  1 15.703732  4.295745 44.257624
10036  0  1 15.703689  4.295693 47.112961
10037  0  1 15.703723  4.295680 49.968226
10038  0  1 15.703782  4.295694 52.823448
10039  0  1 15.703820  4.295713 55.678646
10040  0  1 15.703735  7.150791  1.427573
10041  0  1 15.703699  7.150758  4.282725
10042  0  1 15.703645  7.150721  7.137909
10043  0  1 15.703614  7.150725  9.993160
10044  0  1 15.703663  7.150796 12.848511
10045  0  1 15.703808  7.150925 15.703955
10046  0  1 15.704003  7.151071 18.559422
10047  0  1 15.704188  7.151197 21.414841
10048  0  1 15.704324  7.151282 24.270190
10049  0  1 15.704396  7.151324 27.125484
10050  0  1 15.704396  7.151324 29.980757
10051  0  1 15.704324  7.151282 32.836051
10052  0  1 15.704188  7.151197 35.691400
10053  0  1 15.704003  7.151071 38.546820
10054  0  1 15.703808  7.150925 41.402287
10055  0  1 15.703663  7.150796 44.257730
10056  0  1 15.703614  7.150725 47.113082
10057  0  1 15.703645  7.150721 49.968332
10058  0  1 15.703699  7.150758 52.823516
10059  0  1 15.703735  7.150791 55.678669
10060  0  1 15.703647 10.005923  1.427547
10061  0  1 15.703608 10.005880  4.282646
10062  0  1 15.703548 10.005818  7.137775
10063  0  1 15.703505 10.005788  9.992979
10064  0  1 15.703540 10.005846 12.848318
10065  0  1 15.703686 10.006002 15.703795
10066  0  1 15.703907 10.006211 18.559327
10067  0  1 15.704128 10.006403 21.414805
10068  0  1 15.704297 10.006538 24.270186
10069  0  1 15.704385 10.006606 27.125486
10070  0  1 15.704385 10.006606 29.980755
10071  0  1 15.704297 10.006538 32.836055
10072  0  1 15.704128 10.006403 35.691436
10073  0  1 15.703907 10.006211 38.546915
10074  0  1 15.703686 10.006002 41.402446
10075  0  1 15.703540 10.005845 44.257924
10076  0  1 15.703505 10.005788 47.113263
10077  0  1 15.703548 10.005818 49.968467
10078  0  1 15.703608 10.005880 52.823595
10079  0  1 15.703647 10.005923 55.678695
10080  0  1 15.703610 12.861156  1.427526
10081  0  1 15.703564 12.861104  4.282580
10082  0  1 15.703485 12.861018  7.137652
10083  0  1 15.703407 12.860938  9.992787
10084  0  1 15.703391 12.860932 12.848063
10085  0  1 15.703511 12.861070 15.703545
10086  0  1 15.703756 12.861326 18.559155
10087  0  1 15.704033 12.861597 21.414729
10088  0  1 15.704250 12.861800 24.270168
10089  0  1 15.704365 12.861902 27.125486
10090  0  1 15.704365 12.861902 29.980756
10091  0  1 15.704250 12.861800 32.836073
10092  0  1 15.704033 12.861597 35.691512
10093  0  1 15.703756 12.861326 38.547086
10094  0  1 15.703511 12.861070 41.402696
10095  0  1 15.703391 12.860932 44.258178
10096  0  1 15.703407 12.860938 47.113454
10097  0  1 15.703485 12.861018 49.968589
10098  0  1 15.703564 12.861104 52.823661
10099  0  1 15.703610 12.861156 55.678715
10100  0  1 15.703641 15.716507  1.427515
10101  0  1 15.703584 15.716450  4.282539
10102  0  1 15.703477 15.716343  7.137562
10103  0  1 15.703345 15.716211  9.992617
10104  0  1 15.703253 15.716119 12.847793
10105  0  1 15.703304 15.716170 15.703213
10106  0  1 15.703568 15.716434 18.558893
10107  0  1 15.703932 15.716798 21.414604
10108  0  1 15.704233 15.717099 24.270140
10109  0  1 15.704391 15.717257 27.125485
10110  0  1 15.704391 15.717257 29.980756
10111  0  1 15.704233 15.717099 32.836102
10112  0  1 15.703932 15.716798 35.691637
10113  0  1 15.703568 15.716434 38.547349
10114  0  1 15.703304 15.716170 41.403028
10115  0  1 15.703253 15.716119 44.258448
10116  0  1 15.703345 15.716211 47.113624
10117  0  1 15.703477 15.716343 49.968680
10118  0  1 15.703584 15.716450 52.823702
10119  0  1 15.703641 15.716507 55.678727
10120  0  1 15.703700 18.571938  1.427510
10121  0  1 15.703630 18.571880  4.282518
10122  0  1 15.703493 18.571763  7.137503
10123  0  1 15.703300 18.571594  9.992480
10124  0  1 15.703101 18.571407 12.847523
10125  0  1 15.703023 18.571307 15.702800
10126  0  1 15.703264 18.571492 18.558499
10127  0  1 15.703746 18.571934 21.414395
10128  0  1 15.704177 18.572366 24.270087
10129  0  1 15.704403 18.572607 27.125484
10130  0  1 15.704403 18.572607 29.980758
10131  0  1 15.704177 18.572366 32.836154
10132  0  1 15.703746 18.571934 35.691846
10133  0  1 15.703264 18.571492 38.547742
10134  0  1 15.703023 18.571307 41.403441
10135  0  1 15.703101 18.571407 44.258718
10136  0  1 15.703300 18.571594 47.113761
10137  0  1 15.703493 18.571763 49.968738
10138  0  1 15.703630 18.571880 52.823723
10139  0  1 15.703700 18.571938 55.678731
10140  0  1 15.703744 21.427397  1.427509
10141  0  1 15.703664 21.427345  4.282510
10142  0  1 15.703499 21.427237  7.137468
10143  0  1 15.703248 21.427062  9.992378
10144  0  1 15.702940 21.426826 12.847290
10145  0  1 15.702704 21.426598 15.702379
10146  0  1 15.702867 21.426624 18.557989
10147  0  1 15.703503 21.427104 21.414079
10148  0  1 15.704164 21.427730 24.270012
10149  0  1 15.704513 21.428113 27.125486
10150  0  1 15.704513 21.428113 29.980755
10151  0  1 15.704164 21.427730 32.836229
10152  0  1 15.703503 21.427104 35.692163
10153  0  1 15.702867 21.426624 38.548253
10154  0  1 15.702704 21.426598 41.403862
10155  0  1 15.702940 21.426826 44.258951
10156  0  1 15.703248 21.427062 47.113863
10157  0  1 15.703499 21.427237 49.968773
10158  0  1 15.703664 21.427345 52.823732
10159  0  1 15.703744 21.427397 55.678732
10160  0  1 15.703759 24.282863  1.427509
10161  0  1 15.703669 24.282825  4.282505
10162  0  1 15.703481 24.282740  7.137444
10163  0  1 15.703179 24.282596  9.992302
10164  0  1 15.702775 24.282379 12.847102
10165  0  1 15.702402 24.282131 15.702018
10166  0  1 15.702505 24.282071 18.557499
10167  0  1 15.703307 24.282484 21.413640
10168  0  1 15.704330 24.283327 24.269856
10169  0  1 15.704910 24.283948 27.125477
10170  0  1 15.704910 24.283948 29.980765
10171  0  1 15.704330 24.283327 32.836385
10172  0  1 15.703307 24.282484 35.692602
10173  0  1 15.702505 24.282071 38.548742
10174  0  1 15.702402 24.282131 41.404223
10175  0  1 15.702775 24.282379 44.259139
10176  0  1 15.703179 24.282596 47.113940
10177  0  1 15.703481 24.282740 49.968797
10178  0  1 15.703669 24.282825 52.823736
10179  0  1 15.703759 24.282863 55.678733
10180  0  1 15.703741 27.138334  1.427507
10181  0  1 15.703643 27.138314  4.282498
10182  0  1 15.703433 27.138269  7.137420
10183  0  1 15.703085 27.138185  9.992232
10184  0  1 15.702596 27.138051 12.846939
10185  0  1 15.702100 27.137889 15.701707
10186  0  1 15.702152 27.137864 18.557062
10187  0  1 15.703082 27.138195 21.413147
10188  0  1 15.704353 27.138915 24.269375
10189  0  1 15.705233 27.139719 27.125321
10190  0  1 15.705233 27.139719 29.980920
10191  0  1 15.704353 27.138915 32.836866
10192  0  1 15.703082 27.138195 35.693094
10193  0  1 15.702152 27.137864 38.549179
10194  0  1 15.702100 27.137889 41.404535
10195  0  1 15.702595 27.138051 44.259302
10196  0  1 15.703085 27.138185 47.114009
10197  0  1 15.703433 27.138269 49.968822
10198  0  1 15.703643 27.138314 52.823743
10199  0  1 15.703741 27.138334 55.678734
10200  0  1 15.703694 29.993814  1.427503
10201  0  1 15.703587 29.993818  4.282482
10202  0  1 15.703355 29.993825  7.137383
10203  0  1 15.702963 29.993832  9.992152
10204  0  1 15.702392 29.993836 12.846777
10205  0  1 15.701775 29.993854 15.701414
10206  0  1 15.701730 29.993973 18.556640
10207  0  1 15.702657 29.994280 21.412632
10208  0  1 15.703970 29.994695 24.268794
10209  0  1 15.704853 29.994979 27.124916
10210  0  1 15.704853 29.994979 29.981325
10211  0  1 15.703970 29.994695 32.837447
10212  0  1 15.702657 29.994280 35.693609
10213  0  1 15.701730 29.993973 38.549601
10214  0  1 15.701775 29.993854 41.404827
10215  0  1 15.702392 29.993836 44.259464
10216  0  1 15.702963 29.993832 47.114089
10217  0  1 15.703355 29.993825 49.968859
10218  0  1 15.703587 29.993818 52.823759
10219  0  1 15.703694 29.993814 55.678738
10220  0  1 15.703623 32.849308  1.427495
10221  0  1 15.703507 32.849341  4.282455
10222  0  1 15.703253 32.849413  7.137328
10223  0  1 15.702820 32.849535  9.992055
10224  0  1 15.702176 32.849725 12.846609
10225  0  1 15.701437 32.850003 15.701141
10226  0  1 15.701227 32.850363 18.556249
10227  0  1 15.701963 32.850694 21.412187
10228  0  1 15.703084 32.850702 24.268501
10229  0  1 15.703780 32.850251 27.124968
10230  0  1 15.703780 32.850251 29.981274
10231  0  1 15.703084 32.850702 32.837740
10232  0  1 15.701963 32.850694 35.694054
10233  0  1 15.701227 32.850363 38.549992
10234  0  1 15.701437 32.850003 41.405100
10235  0  1 15.702176 32.849725 44.259632
10236  0  1 15.702820 32.849535 47.114186
10237  0  1 15.703253 32.849413 49.968913
10238  0  1 15.703507 32.849341 52.823786
10239  0  1 15.703623 32.849308 55.678747
10240  0  1 15.703535 35.704819  1.427483
10241  0  1 15.703412 35.704883  4.282417
10242  0  1 15.703142 35.705026  7.137260
10243  0  1 15.702682 35.705276  9.991951
10244  0  1 15.701991 35.705672 12.846464
10245  0  1 15.701164 35.706235 15.700957
10246  0  1 15.700773 35.706835 18.556047
10247  0  1 15.701223 35.707085 21.412112
10248  0  1 15.702059 35.706568 24.268799
10249  0  1 15.702489 35.706149 27.125086
10250  0  1 15.702489 35.706149 29.981156
10251  0  1 15.702059 35.706568 32.837443
10252  0  1 15.701223 35.707085 35.694129
10253  0  1 15.700773 35.706835 38.550195
10254  0  1 15.701164 35.706235 41.405284
10255  0  1 15.701991 35.705672 44.259777
10256  0  1 15.702682 35.705276 47.114291
10257  0  1 15.703142 35.705026 49.968981
10258  0  1 15.703412 35.704883 52.823824
10259  0  1 15.703535 35.704819 55.678759
10260  0  1 15.703441 38.560336  1.427469
10261  0  1 15.703318 38.560431  4.282377
10262  0  1 15.703049 38.560638  7.137197
10263  0  1 15.702597 38.560994  9.991880
10264  0  1 15.701927 38.561541 12.846427
10265  0  1 15.701132 38.562260 15.701032
10266  0  1 15.700720 38.562842 18.556333
10267  0  1 15.701068 38.562677 21.412696
10268  0  1 15.701498 38.562301 24.269069
10269  0  1 15.701723 38.562067 27.125147
10270  0  1 15.701723 38.562067 29.981094
10271  0  1 15.701498 38.562301 32.837172
10272  0  1 15.701068 38.562677 35.693545
10273  0  1 15.700720 38.562842 38.549908
10274  0  1 15.701132 38.562260 41.405209
10275  0  1 15.701927 38.561541 44.259815
10276  0  1 15.702597 38.560994 47.114362
10277  0  1 15.703049 38.560638 49.969045
10278  0  1 15.703318 38.560431 52.823865
10279  0  1 15.703441 38.560336 55.678772
10280  0  1 15.703364 41.415831  1.427459
10281  0  1 15.703250 41.415946  4.282352
10282  0  1 15.703007 41.416188  7.137175
10283  0  1 15.702616 41.416579  9.991908
10284  0  1 15.702080 41.417116 12.846611
10285  0  1 15.701520 41.417675 15.701531
10286  0  1 15.701366 41.417830 18.557192
10287  0  1 15.701559 41.417636 21.413289
10288  0  1 15.701792 41.417403 24.269334
10289  0  1 15.701922 41.417273 27.125215
10290  0  1 15.701922 41.417273 29.981026
10291  0  1 15.701792 41.417403 32.836907
10292  0  1 15.701559 41.417636 35.692952
10293  0  1 15.701366 41.417830 38.549050
10294  0  1 15.701520 41.417675 41.404710
10295  0  1 15.702080 41.417116 44.259630
10296  0  1 15.702616 41.416579 47.114333
10297  0  1 15.703007 41.416188 49.969067
10298  0  1 15.703250 41.415946 52.823890
10299  0  1 15.703364 41.415831 55.678782
10300  0  1 15.703346 44.271246  1.427461
10301  0  1 15.703249 44.271363  4.282365
10302  0  1 15.703054 44.271596  7.137234
10303  0  1 15.702770 44.271923  9.992089
10304  0  1 15.702446 44.272269 12.847042
10305  0  1 15.702209 44.272468 15.702304
10306  0  1 15.702212 44.272406 18.557975
10307  0  1 15.702369 44.272216 21.413807
10308  0  1 15.702536 44.272044 24.269594
10309  0  1 15.702632 44.271953 27.125291
10310  0  1 15.702632 44.271953 29.980950
10311  0  1 15.702536 44.272044 32.836648
10312  0  1 15.702369 44.272216 35.692434
10313  0  1 15.702212 44.272406 38.548267
10314  0  1 15.702209 44.272468 41.403938
10315  0  1 15.702446 44.272269 44.259200
10316  0  1 15.702770 44.271923 47.114152
10317  0  1 15.703054 44.271596 49.969007
10318  0  1 15.703249 44.271363 52.823876
10319  0  1 15.703346 44.271246 55.678780
10320  0  1 15.703421 47.126531  1.427480
10321  0  1 15.703344 47.126635  4.282434
10322  0  1 15.703199 47.126819  7.137389
10323  0  1 15.703018 47.127026  9.992396
10324  0  1 15.702868 47.127162 12.847559
10325  0  1 15.702822 47.127157 15.702956
10326  0  1 15.702905 47.127027 18.558546
10327  0  1 15.703051 47.126862 21.414190
10328  0  1 15.703187 47.126730 24.269798
10329  0  1 15.703265 47.126660 27.125354
10330  0  1 15.703265 47.126660 29.980888
10331  0  1 15.703187 47.126730 32.836443
10332  0  1 15.703051 47.126862 35.692051
10333  0  1 15.702905 47.127027 38.547695
10334  0  1 15.702822 47.127157 41.403286
10335  0  1 15.702868 47.127162 44.258682
10336  0  1 15.703018 47.127026 47.113845
10337  0  1 15.703199 47.126819 49.968852
10338  0  1 15.703344 47.126635 52.823807
10339  0  1 15.703421 47.126531 55.678761
10340  0  1 15.703567 49.981700  1.427516
10341  0  1 15.703504 49.981777  4.282550
10342  0  1 15.703396 49.981896  7.137609
10343  0  1 15.703283 49.981993  9.992741
10344  0  1 15.703229 49.982013 12.848006
10345  0  1 15.703271 49.981944 15.703422
10346  0  1 15.703389 49.981821 18.558932
10347  0  1 15.703528 49.981695 21.414454
10348  0  1 15.703644 49.981600 24.269944
10349  0  1 15.703709 49.981550 27.125400
10350  0  1 15.703709 49.981550 29.980841
10351  0  1 15.703644 49.981600 32.836297
10352  0  1 15.703528 49.981695 35.691787
10353  0  1 15.703389 49.981821 38.547309
10354  0  1 15.703271 49.981944 41.402819
10355  0  1 15.703229 49.982013 44.258235
10356  0  1 15.703283 49.981993 47.113500
10357  0  1 15.703396 49.981896 49.968632
10358  0  1 15.703504 49.981777 52.823691
10359  0  1 15.703567 49.981700 55.678726
10360  0  1 15.703716 52.836798  1.427558
10361  0  1 15.703664 52.836843  4.282680
10362  0  1 15.703576 52.836903  7.137829
10363  0  1 15.703499 52.836937  9.993033
10364  0  1 15.703490 52.836921 12.848332
10365  0  1 15.703572 52.836859 15.703732
10366  0  1 15.703705 52.836774 18.559184
10367  0  1 15.703840 52.836694 21.414630
10368  0  1 15.703944 52.836635 24.270045
10369  0  1 15.704000 52.836604 27.125432
10370  0  1 15.704000 52.836604 29.980809
10371  0  1 15.703944 52.836635 32.836196
10372  0  1 15.703840 52.836694 35.691611
10373  0  1 15.703705 52.836774 38.547057
10374  0  1 15.703572 52.836859 41.402509
10375  0  1 15.703490 52.836921 44.257910
10376  0  1 15.703499 52.836937 47.113208
10377  0  1 15.703576 52.836903 49.968413
10378  0  1 15.703664 52.836843 52.823561
10379  0  1 15.703716 52.836798 55.678684
10380  0  1 15.703820 55.691858  1.427592
10381  0  1 15.703773 55.691876  4.282781
10382  0  1 15.703698 55.691898  7.137986
10383  0  1 15.703640 55.691909  9.993226
10384  0  1 15.703654 55.691902 12.848535
10385  0  1 15.703756 55.691877 15.703922
10386  0  1 15.703900 55.691843 18.559341
10387  0  1 15.704035 55.691810 21.414743
10388  0  1 15.704135 55.691785 24.270112
10389  0  1 15.704188 55.691772 27.125454
10390  0  1 15.704188 55.691772 29.980787
10391  0  1 15.704135 55.691785 32.836129
10392  0  1 15.704035 55.691810 35.691498
10393  0  1 15.703900 55.691843 38.546900
10394  0  1 15.703756 55.691877 41.402319
10395  0  1 15.703654 55.691902 44.257706
10396  0  1 15.703640 55.691909 47.113015
10397  0  1 15.703698 55.691898 49.968255
10398  0  1 15.703773 55.691876 52.823461
10399  0  1 15.703820 55.691858 55.678649
10400  0  1 18.559224  1.440633  1.427605
10401  0  1 18.559205  1.440631  4.282825
10402  0  1 18.559177  1.440633  7.138075
10403  0  1 18.559159  1.440642  9.993362
10404  0  1 18.559179  1.440660 12.848687
10405  0  1 18.559252  1.440685 15.704046
10406  0  1 18.559369  1.440708 18.559424
10407  0  1 18.559497  1.440727 21.414795
10408  0  1 18.559601  1.440738 24.270141
10409  0  1 18.559658  1.440743 27.125464
10410  0  1 18.559658  1.440743 29.980777
10411  0  1 18.559601  1.440738 32.836100
10412  0  1 18.559497  1.440727 35.691446
10413  0  1 18.559369  1.440708 38.546817
10414  0  1 18.559252  1.440685 41.402195
10415  0  1 18.559179  1.440660 44.257555
10416  0  1 18.559159  1.440642 47.112879
10417  0  1 18.559177  1.440633 49.968166
10418  0  1 18.559205  1.440631 52.823416
10419  0  1 18.559224  1.440633 55.678637
10420  0  1 18.559203  4.295700  1.427595
10421  0  1 18.559181  4.295683  4.282795
10422  0  1 18.559149  4.295668  7.138030
10423  0  1 18.559131  4.295679  9.993314
10424  0  1 18.559157  4.295728 12.848653
10425  0  1 18.559247  4.295809 15.704038
10426  0  1 18.559388  4.295900 18.559441
10427  0  1 18.559541  4.295980 21.414824
10428  0  1 18.559666  4.296034 24.270167
10429  0  1 18.559734  4.296061 27.125474
10430  0  1 18.559734  4.296061 29.980767
10431  0  1 18.559666  4.296034 32.836074
10432  0  1 18.559541  4.295980 35.691417
10433  0  1 18.559388  4.295900 38.546800
10434  0  1 18.559247  4.295809 41.402203
10435  0  1 18.559157  4.295728 44.257588
10436  0  1 18.559131  4.295679 47.112927
10437  0  1 18.559149  4.295668 49.968212
10438  0  1 18.559181  4.295683 52.823447
10439  0  1 18.559203  4.295700 55.678647
10440  0  1 18.559154  7.150808  1.427570
10441  0  1 18.559125  7.150773  4.282720
10442  0  1 18.559079  7.150729  7.137907
10443  0  1 18.559047  7.150718  9.993161
10444  0  1 18.559067  7.150777 12.848504
10445  0  1 18.559169  7.150906 15.703930
10446  0  1 18.559342  7.151071 18.559389
10447  0  1 18.559536  7.151223 21.414818
10448  0  1 18.559695  7.151330 24.270179
10449  0  1 18.559784  7.151383 27.125481
10450  0  1 18.559784  7.151383 29.980760
10451  0  1 18.559695  7.151330 32.836062
10452  0  1 18.559536  7.151223 35.691424
10453  0  1 18.559342  7.151071 38.546852
10454  0  1 18.559169  7.150906 41.402311
10455  0  1 18.559067  7.150777 44.257737
10456  0  1 18.559047  7.150718 47.113081
10457  0  1 18.559079  7.150729 49.968334
10458  0  1 18.559125  7.150773 52.823521
10459  0  1 18.559154  7.150808 55.678671
10460  0  1 18.559100 10.005980  1.427543
10461  0  1 18.559060 10.005926  4.282632
10462  0  1 18.558993 10.005842  7.137748
10463  0  1 18.558927 10.005777  9.992931
10464  0  1 18.558914 10.005797 12.848241
10465  0  1 18.559009 10.005943 15.703700
10466  0  1 18.559214 10.006180 18.559248
10467  0  1 18.559467 10.006422 21.414765
10468  0  1 18.559681 10.006599 24.270176
10469  0  1 18.559799 10.006687 27.125485
10470  0  1 18.559799 10.006687 29.980756
10471  0  1 18.559681 10.006599 32.836066
10472  0  1 18.559467 10.006422 35.691476
10473  0  1 18.559214 10.006180 38.546993
10474  0  1 18.559009 10.005943 41.402541
10475  0  1 18.558914 10.005797 44.258000
10476  0  1 18.558927 10.005777 47.113310
10477  0  1 18.558993 10.005842 49.968493
10478  0  1 18.559060 10.005926 52.823609
10479  0  1 18.559100 10.005980 55.678699
10480  0  1 18.559067 12.861231  1.427521
10481  0  1 18.559017 12.861164  4.282560
10482  0  1 18.558923 12.861044  7.137602
10483  0  1 18.558807 12.860907  9.992683
10484  0  1 18.558720 12.860828 12.847887
10485  0  1 18.558755 12.860913 15.703320
10486  0  1 18.558977 12.861195 18.558970
10487  0  1 18.559310 12.861547 21.414640
10488  0  1 18.559605 12.861823 24.270149
10489  0  1 18.559770 12.861963 27.125486
10490  0  1 18.559770 12.861963 29.980755
10491  0  1 18.559605 12.861823 32.836092
10492  0  1 18.559310 12.861547 35.691601
10493  0  1 18.558977 12.861195 38.547271
10494  0  1 18.558755 12.860913 41.402921
10495  0  1 18.558720 12.860828 44.258354
10496  0  1 18.558807 12.860907 47.113558
10497  0  1 18.558923 12.861044 49.968640
10498  0  1 18.559017 12.861164 52.823682
10499  0  1 18.559067 12.861231 55.678720
10500  0  1 18.559072 15.716566  1.427510
10501  0  1 18.559014 15.716496  4.282518
10502  0  1 18.558897 15.716358  7.137503
10503  0  1 18.558728 15.716166  9.992480
10504  0  1 18.558541 15.715967 12.847523
10505  0  1 18.558441 15.715889 15.702800
10506  0  1 18.558626 15.716130 18.558499
10507  0  1 18.559068 15.716612 21.414395
10508  0  1 18.559500 15.717043 24.270087
10509  0  1 18.559741 15.717269 27.125484
10510  0  1 18.559741 15.717269 29.980758
10511  0  1 18.559500 15.717043 32.836154
10512  0  1 18.559068 15.716612 35.691846
10513  0  1 18.558626 15.716130 38.547742
10514  0  1 18.558441 15.715889 41.403441
10515  0  1 18.558541 15.715967 44.258718
10516  0  1 18.558728 15.716166 47.113761
10517  0  1 18.558897 15.716358 49.968738
10518  0  1 18.559014 15.716496 52.823723
10519  0  1 18.559072 15.716566 55.678731
10520  0  1 18.559107 18.571973  1.427509
10521  0  1 18.559043 18.571909  4.282508
10522  0  1 18.558909 18.571775  7.137461
10523  0  1 18.558697 18.571563  9.992355
10524  0  1 18.558419 18.571285 12.847231
10525  0  1 18.558177 18.571043 15.702271
10526  0  1 18.558243 18.571109 18.557834
10527  0  1 18.558834 18.571699 21.413979
10528  0  1 18.559528 18.572394 24.269984
10529  0  1 18.559919 18.572785 27.125484
10530  0  1 18.559919 18.572785 29.980757
10531  0  1 18.559528 18.572394 32.836257
10532  0  1 18.558834 18.571699 35.692262
10533  0  1 18.558243 18.571109 38.548408
10534  0  1 18.558177 18.571043 41.403970
10535  0  1 18.558419 18.571285 44.259010
10536  0  1 18.558697 18.571563 47.113887
10537  0  1 18.558909 18.571775 49.968780
10538  0  1 18.559043 18.571909 52.823733
10539  0  1 18.559107 18.571973 55.678733
10540  0  1 18.559146 21.427421  1.427513
10541  0  1 18.559077 21.427369  4.282517
10542  0  1 18.558929 21.427256  7.137459
10543  0  1 18.558676 21.427059  9.992299
10544  0  1 18.558295 21.426744 12.847023
10545  0  1 18.557807 21.426300 15.701727
10546  0  1 18.557446 21.425887 18.556807
10547  0  1 18.558061 21.426344 21.413144
10548  0  1 18.559158 21.427360 24.269728
10549  0  1 18.559792 21.428005 27.125466
10550  0  1 18.559792 21.428005 29.980775
10551  0  1 18.559158 21.427360 32.836513
10552  0  1 18.558061 21.426344 35.693097
10553  0  1 18.557446 21.425887 38.549434
10554  0  1 18.557807 21.426300 41.404514
10555  0  1 18.558295 21.426744 44.259218
10556  0  1 18.558676 21.427059 47.113943
10557  0  1 18.558929 21.427256 49.968782
10558  0  1 18.559077 21.427369 52.823724
10559  0  1 18.559146 21.427421 55.678728
10560  0  1 18.559164 24.282884  1.427519
10561  0  1 18.559091 24.282850  4.282532
10562  0  1 18.558929 24.282771  7.137473
10563  0  1 18.558640 24.282623  9.992284
10564  0  1 18.558164 24.282354 12.846902
10565  0  1 18.557446 24.281887 15.701325
10566  0  1 18.556632 24.281228 18.555862
10567  0  1 18.557067 24.281269 21.411953
10568  0  1 18.558816 24.282654 24.269269
10569  0  1 18.560017 24.283865 27.125471
10570  0  1 18.560017 24.283865 29.980770
10571  0  1 18.558816 24.282654 32.836973
10572  0  1 18.557067 24.281269 35.694288
10573  0  1 18.556632 24.281228 38.550380
10574  0  1 18.557446 24.281887 41.404916
10575  0  1 18.558164 24.282354 44.259339
10576  0  1 18.558640 24.282623 47.113958
10577  0  1 18.558929 24.282771 49.968768
10578  0  1 18.559091 24.282850 52.823709
10579  0  1 18.559164 24.282884 55.678722
10580  0  1 18.559151 27.138354  1.427522
10581  0  1 18.559072 27.138341  4.282541
10582  0  1 18.558894 27.138307  7.137480
10583  0  1 18.558568 27.138237  9.992268
10584  0  1 18.558006 27.138089 12.846808
10585  0  1 18.557092 27.137791 15.701017
10586  0  1 18.555939 27.137320 18.555135
10587  0  1 18.556327 27.137345 21.410914
10588  0  1 18.558661 27.138553 24.268220
10589  0  1 18.560955 27.140590 27.125272
10590  0  1 18.560955 27.140590 29.980969
10591  0  1 18.558661 27.138553 32.838021
10592  0  1 18.556327 27.137345 35.695328
10593  0  1 18.555939 27.137320 38.551106
10594  0  1 18.557092 27.137791 41.405224
10595  0  1 18.558006 27.138089 44.259434
10596  0  1 18.558568 27.138237 47.113973
10597  0  1 18.558894 27.138307 49.968761
10598  0  1 18.559072 27.138341 52.823700
10599  0  1 18.559151 27.138354 55.678719
10600  0  1 18.559108 29.993831  1.427520
10601  0  1 18.559021 29.993843  4.282534
10602  0  1 18.558822 29.993867  7.137461
10603  0  1 18.558454 29.993902  9.992219
10604  0  1 18.557802 29.993942 12.846681
10605  0  1 18.556700 29.993973 15.700705
10606  0  1 18.555221 29.994016 18.554470
10607  0  1 18.555447 29.994454 21.409935
10608  0  1 18.557948 29.995405 24.266935
10609  0  1 18.560340 29.996114 27.123964
10610  0  1 18.560340 29.996114 29.982277
10611  0  1 18.557948 29.995405 32.839306
10612  0  1 18.555447 29.994454 35.696307
10613  0  1 18.555221 29.994016 38.551771
10614  0  1 18.556700 29.993973 41.405536
10615  0  1 18.557802 29.993942 44.259560
10616  0  1 18.558454 29.993902 47.114022
10617  0  1 18.558822 29.993867 49.968780
10618  0  1 18.559021 29.993843 52.823708
10619  0  1 18.559108 29.993831 55.678721
10620  0  1 18.559040 32.849318  1.427512
10621  0  1 18.558944 32.849360  4.282506
10622  0  1 18.558723 32.849452  7.137406
10623  0  1 18.558310 32.849620  9.992118
10624  0  1 18.557569 32.849912 12.846494
10625  0  1 18.556285 32.850413 15.700351
10626  0  1 18.554462 32.851248 18.553827
10627  0  1 18.554202 32.852414 21.409019
10628  0  1 18.556181 32.852995 24.266266
10629  0  1 18.558086 32.851255 27.124613
10630  0  1 18.558086 32.851255 29.981629
10631  0  1 18.556181 32.852995 32.839976
10632  0  1 18.554202 32.852414 35.697222
10633  0  1 18.554462 32.851248 38.552414
10634  0  1 18.556285 32.850413 41.405890
10635  0  1 18.557569 32.849912 44.259748
10636  0  1 18.558310 32.849620 47.114123
10637  0  1 18.558723 32.849452 49.968835
10638  0  1 18.558944 32.849360 52.823735
10639  0  1 18.559040 32.849318 55.678729
10640  0  1 18.558962 35.704813  1.427498
10641  0  1 18.558859 35.704887  4.282461
10642  0  1 18.558622 35.705055  7.137321
10643  0  1 18.558180 35.705368  9.991979
10644  0  1 18.557385 35.705934 12.846285
10645  0  1 18.556002 35.706942 15.700065
10646  0  1 18.553976 35.708587 18.553520
10647  0  1 18.553287 35.710132 21.409013
10648  0  1 18.555070 35.708771 24.267802
10649  0  1 18.555884 35.707887 27.124921
10650  0  1 18.555884 35.707887 29.981320
10651  0  1 18.555070 35.708771 32.838440
10652  0  1 18.553287 35.710132 35.697228
10653  0  1 18.553976 35.708587 38.552722
10654  0  1 18.556002 35.706942 41.406176
10655  0  1 18.557385 35.705934 44.259957
10656  0  1 18.558180 35.705368 47.114262
10657  0  1 18.558622 35.705055 49.968920
10658  0  1 18.558859 35.704887 52.823780
10659  0  1 18.558962 35.704813 55.678743
10660  0  1 18.558893 38.560302  1.427481
10661  0  1 18.558790 38.560406  4.282410
10662  0  1 18.558556 38.560640  7.137235
10663  0  1 18.558127 38.561069  9.991866
10664  0  1 18.557384 38.561811 12.846198
10665  0  1 18.556165 38.563030 15.700190
10666  0  1 18.554550 38.564646 18.554328
10667  0  1 18.554666 38.564529 21.411230
10668  0  1 18.555364 38.563831 24.268481
10669  0  1 18.555742 38.563453 27.125010
10670  0  1 18.555742 38.563453 29.981231
10671  0  1 18.555364 38.563831 32.837760
10672  0  1 18.554666 38.564529 35.695011
10673  0  1 18.554550 38.564646 38.551913
10674  0  1 18.556165 38.563030 41.406051
10675  0  1 18.557384 38.561811 44.260043
10676  0  1 18.558127 38.561069 47.114375
10677  0  1 18.558556 38.560640 49.969007
10678  0  1 18.558790 38.560406 52.823831
10679  0  1 18.558893 38.560302 55.678760
10680  0  1 18.558859 41.415754  1.427469
10681  0  1 18.558765 41.415878  4.282377
10682  0  1 18.558558 41.416146  7.137197
10683  0  1 18.558202 41.416599  9.991880
10684  0  1 18.557654 41.417268 12.846427
10685  0  1 18.556936 41.418063 15.701032
10686  0  1 18.556353 41.418476 18.556333
10687  0  1 18.556518 41.418127 21.412696
10688  0  1 18.556895 41.417698 24.269069
10689  0  1 18.557129 41.417473 27.125147
10690  0  1 18.557129 41.417473 29.981094
10691  0  1 18.556895 41.417698 32.837172
10692  0  1 18.556518 41.418127 35.693545
10693  0  1 18.556353 41.418476 38.549908
10694  0  1 18.556936 41.418063 41.405209
10695  0  1 18.557654 41.417268 44.259815
10696  0  1 18.558202 41.416599 47.114362
10697  0  1 18.558558 41.416146 49.969045
10698  0  1 18.558765 41.415878 52.823865
10699  0  1 18.558859 41.415754 55.678772
10700  0  1 18.558881 44.271134  1.427470
10701  0  1 18.558803 44.271260  4.282388
10702  0  1 18.558640 44.271513  7.137257
10703  0  1 18.558389 44.271880  9.992082
10704  0  1 18.558069 44.272287 12.846954
10705  0  1 18.557765 44.272540 15.702092
10706  0  1 18.557633 44.272469 18.557667
10707  0  1 18.557785 44.272154 21.413579
10708  0  1 18.558021 44.271864 24.269478
10709  0  1 18.558173 44.271711 27.125258
10710  0  1 18.558173 44.271711 29.980983
10711  0  1 18.558021 44.271864 32.836764
10712  0  1 18.557785 44.272154 35.692663
10713  0  1 18.557633 44.272469 38.548574
10714  0  1 18.557765 44.272540 41.404149
10715  0  1 18.558069 44.272287 44.259288
10716  0  1 18.558389 44.271880 47.114160
10717  0  1 18.558640 44.271513 49.968984
10718  0  1 18.558803 44.271260 52.823853
10719  0  1 18.558881 44.271134 55.678772
10720  0  1 18.558956 47.126423  1.427489
10721  0  1 18.558897 47.126530  4.282458
10722  0  1 18.558782 47.126722  7.137424
10723  0  1 18.558628 47.126944  9.992427
10724  0  1 18.558475 47.127096 12.847557
10725  0  1 18.558383 47.127085 15.702900
10726  0  1 18.558404 47.126910 18.558447
10727  0  1 18.558538 47.126670 21.414102
10728  0  1 18.558698 47.126474 24.269744
10729  0  1 18.558799 47.126370 27.125337
10730  0  1 18.558799 47.126370 29.980905
10731  0  1 18.558698 47.126474 32.836497
10732  0  1 18.558538 47.126670 35.692139
10733  0  1 18.558404 47.126910 38.547794
10734  0  1 18.558383 47.127085 41.403341
10735  0  1 18.558475 47.127096 44.258684
10736  0  1 18.558628 47.126944 47.113815
10737  0  1 18.558782 47.126722 49.968817
10738  0  1 18.558897 47.126530 52.823783
10739  0  1 18.558956 47.126423 55.678753
10740  0  1 18.559055 49.981623  1.427523
10741  0  1 18.559014 49.981696  4.282574
10742  0  1 18.558939 49.981810  7.137653
10743  0  1 18.558853 49.981906  9.992798
10744  0  1 18.558791 49.981922 12.848054
10745  0  1 18.558789 49.981837 15.703434
10746  0  1 18.558860 49.981683 18.558907
10747  0  1 18.558979 49.981519 21.414417
10748  0  1 18.559098 49.981392 24.269916
10749  0  1 18.559169 49.981326 27.125390
10750  0  1 18.559169 49.981326 29.980852
10751  0  1 18.559098 49.981392 32.836326
10752  0  1 18.558979 49.981519 35.691824
10753  0  1 18.558860 49.981683 38.547334
10754  0  1 18.558789 49.981837 41.402807
10755  0  1 18.558791 49.981922 44.258187
10756  0  1 18.558853 49.981906 47.113443
10757  0  1 18.558939 49.981810 49.968589
10758  0  1 18.559014 49.981696 52.823667
10759  0  1 18.559055 49.981623 55.678718
10760  0  1 18.559146 52.836748  1.427563
10761  0  1 18.559118 52.836787  4.282699
10762  0  1 18.559070 52.836838  7.137871
10763  0  1 18.559023 52.836864  9.993100
10764  0  1 18.559006 52.836841 12.848400
10765  0  1 18.559042 52.836767 15.703767
10766  0  1 18.559130 52.836667 18.559182
10767  0  1 18.559242 52.836570 21.414610
10768  0  1 18.559342 52.836497 24.270026
10769  0  1 18.559400 52.836458 27.125425
10770  0  1 18.559400 52.836458 29.980816
10771  0  1 18.559342 52.836497 32.836215
10772  0  1 18.559242 52.836570 35.691632
10773  0  1 18.559130 52.836667 38.547059
10774  0  1 18.559042 52.836767 41.402474
10775  0  1 18.559006 52.836841 44.257842
10776  0  1 18.559023 52.836864 47.113141
10777  0  1 18.559070 52.836838 49.968370
10778  0  1 18.559118 52.836787 52.823542
10779  0  1 18.559146 52.836748 55.678679
10780  0  1 18.559206 55.691821  1.427594
10781  0  1 18.559184 55.691835  4.282792
10782  0  1 18.559151 55.691852  7.138022
10783  0  1 18.559125 55.691858  9.993292
10784  0  1 18.559131 55.691845 12.848605
10785  0  1 18.559187 55.691815 15.703960
10786  0  1 18.559288 55.691776 18.559343
10787  0  1 18.559403 55.691737 21.414728
10788  0  1 18.559498 55.691708 24.270097
10789  0  1 18.559552 55.691692 27.125448
10790  0  1 18.559552 55.691692 29.980793
10791  0  1 18.559498 55.691708 32.836145
10792  0  1 18.559403 55.691737 35.691514
10793  0  1 18.559288 55.691776 38.546899
10794  0  1 18.559187 55.691815 41.402281
10795  0  1 18.559131 55.691845 44.257636
10796  0  1 18.559125 55.691858 47.112950
10797  0  1 18.559151 55.691852 49.968220
10798  0  1 18.559184 55.691835 52.823449
10799  0  1 18.559206 55.691821 55.678648
10800  0  1 21.414617  1.440588  1.427603
10801  0  1 21.414608  1.440585  4.282822
10802  0  1 21.414597  1.440585  7.138079
10803  0  1 21.414593  1.440593  9.993381
10804  0  1 21.414612  1.440613 12.848717
10805  0  1 21.414663  1.440640 15.704072
10806  0  1 21.414747  1.440668 18.559433
10807  0  1 21.414847  1.440692 21.414789
10808  0  1 21.414937  1.440707 24.270131
10809  0  1 21.414989  1.440714 27.125459
10810  0  1 21.414989  1.440714 29.980782
10811  0  1 21.414937  1.440707 32.836110
10812  0  1 21.414847  1.440692 35.691452
10813  0  1 21.414747  1.440668 38.546808
10814  0  1 21.414663  1.440640 41.402169
10815  0  1 21.414612  1.440613 44.257525
10816  0  1 21.414593  1.440593 47.112861
10817  0  1 21.414597  1.440585 49.968162
10818  0  1 21.414608  1.440585 52.823420
10819  0  1 21.414617  1.440588 55.678639
10820  0  1 21.414600  4.295662  1.427590
10821  0  1 21.414585  4.295644  4.282783
10822  0  1 21.414565  4.295627  7.138018
10823  0  1 21.414556  4.295637  9.993310
10824  0  1 21.414577  4.295691 12.848656
10825  0  1 21.414644  4.295782 15.704039
10826  0  1 21.414756  4.295887 18.559431
10827  0  1 21.414891  4.295980 21.414807
10828  0  1 21.415011  4.296046 24.270153
10829  0  1 21.415081  4.296080 27.125469
10830  0  1 21.415081  4.296080 29.980773
10831  0  1 21.415011  4.296046 32.836089
10832  0  1 21.414891  4.295980 35.691434
10833  0  1 21.414756  4.295887 38.546810
10834  0  1 21.414644  4.295782 41.402202
10835  0  1 21.414577  4.295691 44.257585
10836  0  1 21.414556  4.295637 47.112932
10837  0  1 21.414565  4.295627 49.968223
10838  0  1 21.414585  4.295644 52.823458
10839  0  1 21.414600  4.295662 55.678651
10840  0  1 21.414570  7.150789  1.427563
10841  0  1 21.414545  7.150748  4.282701
10842  0  1 21.414506  7.150695  7.137877
10843  0  1 21.414475  7.150675  9.993126
10844  0  1 21.414484  7.150733 12.848468
10845  0  1 21.414561  7.150877 15.703891
10846  0  1 21.414708  7.151068 18.559350
10847  0  1 21.414897  7.151252 21.414785
10848  0  1 21.415069  7.151385 24.270160
10849  0  1 21.415171  7.151453 27.125475
10850  0  1 21.415171  7.151453 29.980766
10851  0  1 21.415069  7.151385 32.836081
10852  0  1 21.414897  7.151252 35.691456
10853  0  1 21.414708  7.151068 38.546892
10854  0  1 21.414561  7.150877 41.402350
10855  0  1 21.414484  7.150733 44.257774
10856  0  1 21.414475  7.150675 47.113116
10857  0  1 21.414506  7.150695 49.968364
10858  0  1 21.414545  7.150748 52.823540
10859  0  1 21.414570  7.150789 55.678678
10860  0  1 21.414541 10.005988  1.427535
10861  0  1 21.414504 10.005924  4.282609
10862  0  1 21.414438 10.005818  7.137703
10863  0  1 21.414366 10.005725  9.992859
10864  0  1 21.414332 10.005723 12.848143
10865  0  1 21.414391 10.005875 15.703591
10866  0  1 21.414572 10.006155 18.559151
10867  0  1 21.414841 10.006463 21.414706
10868  0  1 21.415100 10.006698 24.270153
10869  0  1 21.415254 10.006818 27.125481
10870  0  1 21.415254 10.006818 29.980760
10871  0  1 21.415100 10.006698 32.836088
10872  0  1 21.414841 10.006463 35.691535
10873  0  1 21.414572 10.006155 38.547090
10874  0  1 21.414391 10.005875 41.402650
10875  0  1 21.414332 10.005723 44.258098
10876  0  1 21.414366 10.005725 47.113382
10877  0  1 21.414438 10.005818 49.968539
10878  0  1 21.414504 10.005924 52.823633
10879  0  1 21.414541 10.005988 55.678706
10880  0  1 21.414525 12.861264  1.427516
10881  0  1 21.414479 12.861184  4.282539
10882  0  1 21.414386 12.861035  7.137552
10883  0  1 21.414260 12.860847  9.992581
10884  0  1 21.414136 12.860702 12.847711
10885  0  1 21.414109 12.860746 15.703085
10886  0  1 21.414284 12.861066 18.558748
10887  0  1 21.414662 12.861541 21.414517
10888  0  1 21.415062 12.861938 24.270119
10889  0  1 21.415302 12.862142 27.125487
10890  0  1 21.415302 12.862142 29.980755
10891  0  1 21.415062 12.861938 32.836122
10892  0  1 21.414662 12.861541 35.691724
10893  0  1 21.414284 12.861066 38.547494
10894  0  1 21.414109 12.860746 41.403156
10895  0  1 21.414136 12.860702 44.258530
10896  0  1 21.414260 12.860847 47.113661
10897  0  1 21.414386 12.861035 49.968689
10898  0  1 21.414479 12.861184 52.823702
10899  0  1 21.414525 12.861264 55.678726
10900  0  1 21.414531 15.716610  1.427509
10901  0  1 21.414479 15.716530  4.282510
10902  0  1 21.414371 15.716365  7.137468
10903  0  1 21.414196 15.716114  9.992378
10904  0  1 21.413960 15.715806 12.847290
10905  0  1 21.413732 15.715570 15.702379
10906  0  1 21.413758 15.715733 18.557989
10907  0  1 21.414238 15.716369 21.414079
10908  0  1 21.414864 15.717030 24.270012
10909  0  1 21.415247 15.717379 27.125486
10910  0  1 21.415247 15.717379 29.980755
10911  0  1 21.414864 15.717030 32.836229
10912  0  1 21.414238 15.716369 35.692163
10913  0  1 21.413758 15.715733 38.548253
10914  0  1 21.413732 15.715570 41.403862
10915  0  1 21.413960 15.715806 44.258951
10916  0  1 21.414196 15.716114 47.113863
10917  0  1 21.414371 15.716365 49.968773
10918  0  1 21.414479 15.716530 52.823732
10919  0  1 21.414531 15.716610 55.678732
10920  0  1 21.414555 18.572012  1.427513
10921  0  1 21.414503 18.571943  4.282517
10922  0  1 21.414390 18.571795  7.137459
10923  0  1 21.414193 18.571542  9.992299
10924  0  1 21.413878 18.571161 12.847023
10925  0  1 21.413434 18.570673 15.701727
10926  0  1 21.413021 18.570312 18.556807
10927  0  1 21.413478 18.570927 21.413144
10928  0  1 21.414494 18.572024 24.269728
10929  0  1 21.415139 18.572658 27.125466
10930  0  1 21.415139 18.572658 29.980775
10931  0  1 21.414494 18.572024 32.836513
10932  0  1 21.413478 18.570927 35.693097
10933  0  1 21.413021 18.570312 38.549434
10934  0  1 21.413434 18.570673 41.404514
10935  0  1 21.413878 18.571161 44.259218
10936  0  1 21.414193 18.571542 47.113943
10937  0  1 21.414390 18.571795 49.968782
10938  0  1 21.414503 18.571943 52.823724
10939  0  1 21.414555 18.572012 55.678728
10940  0  1 21.414582 21.427448  1.427524
10941  0  1 21.414533 21.427399  4.282547
10942  0  1 21.414421 21.427287  7.137500
10943  0  1 21.414219 21.427085  9.992322
10944  0  1 21.413877 21.426743 12.846944
10945  0  1 21.413352 21.426218 15.701352
10946  0  1 21.412820 21.425686 18.555913
10947  0  1 21.413132 21.425998 21.411884
10948  0  1 21.414833 21.427699 24.269230
10949  0  1 21.416136 21.429002 27.125463
10950  0  1 21.416136 21.429002 29.980778
10951  0  1 21.414833 21.427699 32.837011
10952  0  1 21.413132 21.425998 35.694357
10953  0  1 21.412820 21.425686 38.550329
10954  0  1 21.413352 21.426218 41.404889
10955  0  1 21.413877 21.426743 44.259298
10956  0  1 21.414219 21.427085 47.113919
10957  0  1 21.414421 21.427287 49.968741
10958  0  1 21.414533 21.427399 52.823694
10959  0  1 21.414582 21.427448 55.678718
10960  0  1 21.414595 24.282902  1.427535
10961  0  1 21.414545 24.282874  4.282581
10962  0  1 21.414432 24.282807  7.137557
10963  0  1 21.414220 24.282679  9.992392
10964  0  1 21.413836 24.282430 12.846977
10965  0  1 21.413130 24.281920 15.701146
10966  0  1 21.411864 24.280814 18.554765
10967  0  1 21.409903 24.278732 21.408348
10968  0  1 21.411957 24.280345 24.267050
10969  0  1 21.414697 24.282959 27.125300
10970  0  1 21.414697 24.282959 29.980942
10971  0  1 21.411957 24.280345 32.839191
10972  0  1 21.409903 24.278732 35.697893
10973  0  1 21.411864 24.280814 38.551476
10974  0  1 21.413130 24.281920 41.405095
10975  0  1 21.413836 24.282430 44.259264
10976  0  1 21.414220 24.282679 47.113849
10977  0  1 21.414432 24.282807 49.968685
10978  0  1 21.414545 24.282874 52.823660
10979  0  1 21.414595 24.282902 55.678707
10980  0  1 21.414581 27.138364  1.427542
10981  0  1 21.414527 27.138357  4.282603
10982  0  1 21.414404 27.138340  7.137596
10983  0  1 21.414170 27.138300  9.992446
10984  0  1 21.413729 27.138202 12.847024
10985  0  1 21.412860 27.137934 15.701078
10986  0  1 21.411080 27.137155 18.554157
10987  0  1 21.407581 27.135071 21.405935
10988  0  1 21.409739 27.136022 24.264034
10989  0  1 21.415590 27.141102 27.124792
10990  0  1 21.415590 27.141102 29.981449
10991  0  1 21.409739 27.136022 32.842207
10992  0  1 21.407581 27.135071 35.700306
10993  0  1 21.411080 27.137155 38.552084
10994  0  1 21.412860 27.137934 41.405164
10995  0  1 21.413729 27.138202 44.259217
10996  0  1 21.414170 27.138300 47.113795
10997  0  1 21.414404 27.138340 49.968646
10998  0  1 21.414527 27.138357 52.823638
10999  0  1 21.414581 27.138364 55.678700
11000  0  1 21.414540 29.993830  1.427542
11001  0  1 21.414478 29.993848  4.282603
11002  0  1 21.414337 29.993887  7.137593
11003  0  1 21.414065 29.993955  9.992434
11004  0  1 21.413543 29.994063 12.846975
11005  0  1 21.412481 29.994212 15.700894
11006  0  1 21.410199 29.994343 18.553501
11007  0  1 21.405581 29.994301 21.403979
11008  0  1 21.407867 29.996689 24.260778
11009  0  1 21.415091 29.999777 27.119802
11010  0  1 21.415091 29.999777 29.986439
11011  0  1 21.407867 29.996689 32.845463
11012  0  1 21.405581 29.994301 35.702262
11013  0  1 21.410199 29.994343 38.552740
11014  0  1 21.412481 29.994212 41.405348
11015  0  1 21.413543 29.994063 44.259266
11016  0  1 21.414065 29.993955 47.113808
11017  0  1 21.414337 29.993887 49.968648
11018  0  1 21.414478 29.993848 52.823638
11019  0  1 21.414540 29.993830 55.678700
11020  0  1 21.414481 32.849302  1.427533
11021  0  1 21.414411 32.849347  4.282575
11022  0  1 21.414249 32.849451  7.137537
11023  0  1 21.413934 32.849649  9.992328
11024  0  1 21.413320 32.850023 12.846773
11025  0  1 21.412045 32.850766 15.700473
11026  0  1 21.409207 32.852358 18.552538
11027  0  1 21.403131 32.855922 21.401788
11028  0  1 21.403533 32.861053 24.258318
11029  0  1 21.411191 32.853191 27.124999
11030  0  1 21.411191 32.853191 29.981242
11031  0  1 21.403533 32.861053 32.847923
11032  0  1 21.403131 32.855922 35.704454
11033  0  1 21.409207 32.852358 38.553703
11034  0  1 21.412045 32.850766 41.405768
11035  0  1 21.413320 32.850023 44.259469
11036  0  1 21.413934 32.849649 47.113913
11037  0  1 21.414249 32.849451 49.968705
11038  0  1 21.414411 32.849347 52.823666
11039  0  1 21.414481 32.849302 55.678708
11040  0  1 21.414422 35.704774  1.427517
11041  0  1 21.414347 35.704849  4.282523
11042  0  1 21.414173 35.705023  7.137434
11043  0  1 21.413835 35.705360  9.992148
11044  0  1 21.413181 35.706014 12.846468
11045  0  1 21.411837 35.707359 15.699984
11046  0  1 21.408872 35.710323 18.551892
11047  0  1 21.402487 35.716709 21.401709
11048  0  1 21.406277 35.712918 24.266060
11049  0  1 21.408042 35.711153 27.124831
11050  0  1 21.408042 35.711153 29.981410
11051  0  1 21.406277 35.712918 32.840182
11052  0  1 21.402487 35.716709 35.704532
11053  0  1 21.408872 35.710323 38.554349
11054  0  1 21.411837 35.707359 41.406258
11055  0  1 21.413181 35.706014 44.259773
11056  0  1 21.413835 35.705360 47.114093
11057  0  1 21.414173 35.705023 49.968807
11058  0  1 21.414347 35.704849 52.823719
11059  0  1 21.414422 35.704774 55.678724
11060  0  1 21.414382 38.560233  1.427498
11061  0  1 21.414309 38.560337  4.282461
11062  0  1 21.414141 38.560573  7.137321
11063  0  1 21.413827 38.561016  9.991979
11064  0  1 21.413262 38.561811 12.846285
11065  0  1 21.412253 38.563194 15.700065
11066  0  1 21.410609 38.565219 18.553520
11067  0  1 21.409064 38.565909 21.409013
11068  0  1 21.410424 38.564125 24.267802
11069  0  1 21.411308 38.563312 27.124921
11070  0  1 21.411308 38.563312 29.981320
11071  0  1 21.410424 38.564125 32.838440
11072  0  1 21.409064 38.565909 35.697228
11073  0  1 21.410609 38.565219 38.552722
11074  0  1 21.412253 38.563194 41.406176
11075  0  1 21.413262 38.561811 44.259957
11076  0  1 21.413827 38.561016 47.114262
11077  0  1 21.414141 38.560573 49.968920
11078  0  1 21.414309 38.560337 52.823780
11079  0  1 21.414382 38.560233 55.678743
11080  0  1 21.414377 41.415660  1.427483
11081  0  1 21.414312 41.415784  4.282417
11082  0  1 21.414169 41.416053  7.137260
11083  0  1 21.413920 41.416513  9.991951
11084  0  1 21.413523 41.417204 12.846464
11085  0  1 21.412961 41.418031 15.700957
11086  0  1 21.412361 41.418422 18.556047
11087  0  1 21.412111 41.417972 21.412112
11088  0  1 21.412628 41.417136 24.268799
11089  0  1 21.413046 41.416706 27.125086
11090  0  1 21.413046 41.416706 29.981156
11091  0  1 21.412628 41.417136 32.837443
11092  0  1 21.412111 41.417972 35.694129
11093  0  1 21.412361 41.418422 38.550195
11094  0  1 21.412961 41.418031 41.405284
11095  0  1 21.413523 41.417204 44.259777
11096  0  1 21.413920 41.416513 47.114291
11097  0  1 21.414169 41.416053 49.968981
11098  0  1 21.414312 41.415784 52.823824
11099  0  1 21.414377 41.415660 55.678759
11100  0  1 21.414409 44.271034  1.427480
11101  0  1 21.414358 44.271159  4.282419
11102  0  1 21.414250 44.271412  7.137304
11103  0  1 21.414080 44.271779  9.992135
11104  0  1 21.413852 44.272180 12.846995
11105  0  1 21.413608 44.272394 15.702099
11106  0  1 21.413438 44.272226 18.557610
11107  0  1 21.413458 44.271769 21.413436
11108  0  1 21.413696 44.271315 24.269381
11109  0  1 21.413893 44.271074 27.125228
11110  0  1 21.413893 44.271074 29.981013
11111  0  1 21.413696 44.271315 32.836860
11112  0  1 21.413458 44.271769 35.692805
11113  0  1 21.413438 44.272226 38.548632
11114  0  1 21.413608 44.272394 41.404142
11115  0  1 21.413852 44.272180 44.259247
11116  0  1 21.414080 44.271779 47.114106
11117  0  1 21.414250 44.271412 49.968937
11118  0  1 21.414358 44.271159 52.823822
11119  0  1 21.414409 44.271034 55.678761
11120  0  1 21.414467 47.126336  1.427496
11121  0  1 21.414430 47.126440  4.282482
11122  0  1 21.414358 47.126628  7.137464
11123  0  1 21.414258 47.126841  9.992479
11124  0  1 21.414149 47.126971 12.847616
11125  0  1 21.414064 47.126913 15.702951
11126  0  1 21.414040 47.126668 18.558466
11127  0  1 21.414104 47.126350 21.414077
11128  0  1 21.414234 47.126085 24.269712
11129  0  1 21.414334 47.125945 27.125323
11130  0  1 21.414334 47.125945 29.980918
11131  0  1 21.414234 47.126085 32.836529
11132  0  1 21.414104 47.126350 35.692165
11133  0  1 21.414040 47.126668 38.547775
11134  0  1 21.414064 47.126913 41.403290
11135  0  1 21.414149 47.126971 44.258625
11136  0  1 21.414258 47.126841 47.113762
11137  0  1 21.414358 47.126628 49.968778
11138  0  1 21.414430 47.126440 52.823759
11139  0  1 21.414467 47.126336 55.678745
11140  0  1 21.414530 49.981554  1.427529
11141  0  1 21.414507 49.981623  4.282593
11142  0  1 21.414465 49.981729  7.137687
11143  0  1 21.414413 49.981811  9.992851
11144  0  1 21.414370 49.981805 12.848120
11145  0  1 21.414354 49.981688 15.703496
11146  0  1 21.414379 49.981497 18.558942
11147  0  1 21.414446 49.981298 21.414420
11148  0  1 21.414532 49.981143 24.269905
11149  0  1 21.414592 49.981061 27.125384
11150  0  1 21.414592 49.981061 29.980858
11151  0  1 21.414532 49.981143 32.836336
11152  0  1 21.414446 49.981298 35.691821
11153  0  1 21.414379 49.981497 38.547299
11154  0  1 21.414354 49.981688 41.402746
11155  0  1 21.414370 49.981805 44.258121
11156  0  1 21.414413 49.981811 47.113390
11157  0  1 21.414465 49.981729 49.968554
11158  0  1 21.414507 49.981623 52.823649
11159  0  1 21.414530 49.981554 55.678713
11160  0  1 21.414583 52.836692  1.427566
11161  0  1 21.414569 52.836727  4.282712
11162  0  1 21.414547 52.836770  7.137899
11163  0  1 21.414524 52.836785  9.993148
11164  0  1 21.414514 52.836746 12.848461
11165  0  1 21.414529 52.836656 15.703823
11166  0  1 21.414576 52.836541 18.559214
11167  0  1 21.414645 52.836430 21.414617
11168  0  1 21.414717 52.836346 24.270021
11169  0  1 21.414762 52.836302 27.125421
11170  0  1 21.414762 52.836302 29.980820
11171  0  1 21.414717 52.836346 32.836221
11172  0  1 21.414645 52.836430 35.691625
11173  0  1 21.414576 52.836541 38.547027
11174  0  1 21.414529 52.836656 41.402418
11175  0  1 21.414514 52.836746 44.257780
11176  0  1 21.414524 52.836785 47.113093
11177  0  1 21.414547 52.836770 49.968342
11178  0  1 21.414569 52.836727 52.823530
11179  0  1 21.414583 52.836692 55.678675
11180  0  1 21.414613 55.691772  1.427594
11181  0  1 21.414604 55.691783  4.282797
11182  0  1 21.414592 55.691795  7.138039
11183  0  1 21.414584 55.691796  9.993327
11184  0  1 21.414591 55.691777 12.848654
11185  0  1 21.414626 55.691741 15.704004
11186  0  1 21.414689 55.691698 18.559365
11187  0  1 21.414769 55.691657 21.414730
11188  0  1 21.414843 55.691626 24.270090
11189  0  1 21.414887 55.691609 27.125445
11190  0  1 21.414887 55.691609 29.980796
11191  0  1 21.414843 55.691626 32.836151
11192  0  1 21.414769 55.691657 35.691511
11193  0  1 21.414689 55.691698 38.546876
11194  0  1 21.414626 55.691741 41.402238
11195  0  1 21.414591 55.691777 44.257588
11196  0  1 21.414584 55.691796 47.112914
11197  0  1 21.414592 55.691795 49.968202
11198  0  1 21.414604 55.691783 52.823444
11199  0  1 21.414613 55.691772 55.678647
11200  0  1 24.270027  1.440533  1.427600
11201  0  1 24.270023  1.440528  4.282816
11202  0  1 24.270018  1.440526  7.138075
11203  0  1 24.270018  1.440534  9.993383
11204  0  1 24.270033  1.440556 12.848727
11205  0  1 24.270067  1.440588 15.704084
11206  0  1 24.270122  1.440622 18.559438
11207  0  1 24.270190  1.440651 21.414784
11208  0  1 24.270255  1.440671 24.270122
11209  0  1 24.270295  1.440681 27.125455
11210  0  1 24.270295  1.440681 29.980786
11211  0  1 24.270255  1.440671 32.836119
11212  0  1 24.270190  1.440651 35.691457
11213  0  1 24.270122  1.440622 38.546803
11214  0  1 24.270067  1.440588 41.402158
11215  0  1 24.270033  1.440556 44.257515
11216  0  1 24.270018  1.440534 47.112858
11217  0  1 24.270018  1.440526 49.968166
11218  0  1 24.270023  1.440528 52.823425
11219  0  1 24.270027  1.440533 55.678641
11220  0  1 24.270012  4.295612  1.427584
11221  0  1 24.270001  4.295591  4.282768
11222  0  1 24.269987  4.295570  7.137997
11223  0  1 24.269980  4.295580  9.993289
11224  0  1 24.269996  4.295639 12.848639
11225  0  1 24.270045  4.295741 15.704022
11226  0  1 24.270129  4.295859 18.559409
11227  0  1 24.270236  4.295966 21.414780
11228  0  1 24.270339  4.296043 24.270130
11229  0  1 24.270403  4.296082 27.125460
11230  0  1 24.270403  4.296082 29.980782
11231  0  1 24.270339  4.296043 32.836112
11232  0  1 24.270236  4.295966 35.691461
11233  0  1 24.270129  4.295859 38.546833
11234  0  1 24.270045  4.295741 41.402220
11235  0  1 24.269996  4.295639 44.257603
11236  0  1 24.269980  4.295580 47.112953
11237  0  1 24.269987  4.295570 49.968245
11238  0  1 24.270001  4.295591 52.823474
11239  0  1 24.270012  4.295612 55.678657
11240  0  1 24.269994  7.150749  1.427556
11241  0  1 24.269974  7.150703  4.282677
11242  0  1 24.269942  7.150639  7.137839
11243  0  1 24.269916  7.150611  9.993076
11244  0  1 24.269919  7.150671 12.848413
11245  0  1 24.269975  7.150830 15.703834
11246  0  1 24.270093  7.151047 18.559290
11247  0  1 24.270257  7.151259 21.414728
11248  0  1 24.270423  7.151417 24.270118
11249  0  1 24.270528  7.151499 27.125460
11250  0  1 24.270528  7.151499 29.980781
11251  0  1 24.270423  7.151417 32.836123
11252  0  1 24.270257  7.151259 35.691514
11253  0  1 24.270093  7.151047 38.546951
11254  0  1 24.269975  7.150830 41.402407
11255  0  1 24.269919  7.150671 44.257829
11256  0  1 24.269916  7.150611 47.113165
11257  0  1 24.269942  7.150639 49.968402
11258  0  1 24.269974  7.150703 52.823564
11259  0  1 24.269994  7.150749 55.678686
11260  0  1 24.269983 10.005966  1.427528
11261  0  1 24.269953 10.005892  4.282583
11262  0  1 24.269898 10.005768  7.137653
11263  0  1 24.269834 10.005649  9.992780
11264  0  1 24.269796 10.005630 12.848037
11265  0  1 24.269834 10.005791 15.703471
11266  0  1 24.269981 10.006113 18.559031
11267  0  1 24.270227 10.006483 21.414600
11268  0  1 24.270504 10.006778 24.270086
11269  0  1 24.270685 10.006932 27.125459
11270  0  1 24.270685 10.006932 29.980782
11271  0  1 24.270504 10.006778 32.836155
11272  0  1 24.270227 10.006483 35.691641
11273  0  1 24.269981 10.006113 38.547210
11274  0  1 24.269834 10.005791 41.402770
11275  0  1 24.269796 10.005630 44.258204
11276  0  1 24.269834 10.005649 47.113461
11277  0  1 24.269898 10.005768 49.968588
11278  0  1 24.269953 10.005892 52.823658
11279  0  1 24.269983 10.005966 55.678714
11280  0  1 24.269984 12.861263  1.427511
11281  0  1 24.269947 12.861173  4.282520
11282  0  1 24.269871 12.860998  7.137505
11283  0  1 24.269761 12.860765  9.992485
11284  0  1 24.269642 12.860563 12.847547
11285  0  1 24.269594 12.860576 15.702862
11286  0  1 24.269724 12.860940 18.558509
11287  0  1 24.270077 12.861535 21.414317
11288  0  1 24.270555 12.862084 24.270021
11289  0  1 24.270884 12.862377 27.125463
11290  0  1 24.270884 12.862377 29.980778
11291  0  1 24.270555 12.862084 32.836220
11292  0  1 24.270077 12.861535 35.691924
11293  0  1 24.269724 12.860940 38.547733
11294  0  1 24.269594 12.860576 41.403380
11295  0  1 24.269642 12.860563 44.258694
11296  0  1 24.269761 12.860765 47.113756
11297  0  1 24.269871 12.860998 49.968736
11298  0  1 24.269947 12.861173 52.823721
11299  0  1 24.269984 12.861263 55.678731
11300  0  1 24.269997 15.716625  1.427509
11301  0  1 24.269959 15.716535  4.282505
11302  0  1 24.269874 15.716347  7.137444
11303  0  1 24.269730 15.716045  9.992302
11304  0  1 24.269513 15.715641 12.847102
11305  0  1 24.269265 15.715267 15.702018
11306  0  1 24.269205 15.715371 18.557499
11307  0  1 24.269618 15.716173 21.413640
11308  0  1 24.270461 15.717196 24.269856
11309  0  1 24.271082 15.717775 27.125477
11310  0  1 24.271082 15.717775 29.980765
11311  0  1 24.270461 15.717196 32.836385
11312  0  1 24.269618 15.716173 35.692602
11313  0  1 24.269205 15.715371 38.548742
11314  0  1 24.269265 15.715267 41.404223
11315  0  1 24.269513 15.715641 44.259139
11316  0  1 24.269730 15.716045 47.113940
11317  0  1 24.269874 15.716347 49.968797
11318  0  1 24.269959 15.716535 52.823736
11319  0  1 24.269997 15.716625 55.678733
11320  0  1 24.270018 18.572030  1.427519
11321  0  1 24.269984 18.571957  4.282532
11322  0  1 24.269905 18.571795  7.137473
11323  0  1 24.269757 18.571506  9.992284
11324  0  1 24.269488 18.571030 12.846902
11325  0  1 24.269021 18.570312 15.701325
11326  0  1 24.268362 18.569498 18.555862
11327  0  1 24.268403 18.569933 21.411953
11328  0  1 24.269788 18.571682 24.269269
11329  0  1 24.270999 18.572883 27.125471
11330  0  1 24.270999 18.572883 29.980770
11331  0  1 24.269788 18.571682 32.836973
11332  0  1 24.268403 18.569933 35.694288
11333  0  1 24.268362 18.569498 38.550380
11334  0  1 24.269021 18.570312 41.404916
11335  0  1 24.269488 18.571030 44.259339
11336  0  1 24.269757 18.571506 47.113958
11337  0  1 24.269905 18.571795 49.968768
11338  0  1 24.269984 18.571957 52.823709
11339  0  1 24.270018 18.572030 55.678722
11340  0  1 24.270036 21.427461  1.427535
11341  0  1 24.270008 21.427411  4.282581
11342  0  1 24.269941 21.427298  7.137557
11343  0  1 24.269813 21.427086  9.992392
11344  0  1 24.269564 21.426702 12.846977
11345  0  1 24.269054 21.425996 15.701146
11346  0  1 24.267948 21.424730 18.554765
11347  0  1 24.265866 21.422769 21.408348
11348  0  1 24.267480 21.424823 24.267050
11349  0  1 24.270093 21.427563 27.125300
11350  0  1 24.270093 21.427563 29.980942
11351  0  1 24.267480 21.424823 32.839191
11352  0  1 24.265866 21.422769 35.697893
11353  0  1 24.267948 21.424730 38.551476
11354  0  1 24.269054 21.425996 41.405095
11355  0  1 24.269564 21.426702 44.259264
11356  0  1 24.269813 21.427086 47.113849
11357  0  1 24.269941 21.427298 49.968685
11358  0  1 24.270008 21.427411 52.823660
11359  0  1 24.270036 21.427461 55.678707
11360  0  1 24.270039 24.282905  1.427550
11361  0  1 24.270013 24.282879  4.282629
11362  0  1 24.269953 24.282819  7.137648
11363  0  1 24.269840 24.282706  9.992540
11364  0  1 24.269628 24.282494 12.847189
11365  0  1 24.269215 24.282081 15.701362
11366  0  1 24.268470 24.281336 18.554727
11367  0  1 24.267953 24.280819 21.407930
11368  0  1 24.271116 24.283982 24.266320
11369  0  1 24.276366 24.289232 27.125755
11370  0  1 24.276366 24.289232 29.980486
11371  0  1 24.271116 24.283982 32.839921
11372  0  1 24.267953 24.280819 35.698312
11373  0  1 24.268470 24.281336 38.551514
11374  0  1 24.269215 24.282081 41.404880
11375  0  1 24.269628 24.282494 44.259052
11376  0  1 24.269840 24.282706 47.113701
11377  0  1 24.269953 24.282819 49.968594
11378  0  1 24.270013 24.282879 52.823612
11379  0  1 24.270039 24.282905 55.678692
11380  0  1 24.270019 27.138355  1.427559
11381  0  1 24.269990 27.138351  4.282660
11382  0  1 24.269924 27.138343  7.137709
11383  0  1 24.269798 27.138325  9.992650
11384  0  1 24.269558 27.138287 12.847379
11385  0  1 24.269064 27.138175 15.701659
11386  0  1 24.267882 27.137707 18.554875
11387  0  1 24.264468 27.135151 21.405219
11388  0  1 24.250811 27.121956 24.247192
11389  0  1 24.258816 27.128456 27.115918
11390  0  1 24.258816 27.128456 29.990323
11391  0  1 24.250811 27.121956 32.859049
11392  0  1 24.264468 27.135151 35.701022
11393  0  1 24.267882 27.137707 38.551367
11394  0  1 24.269064 27.138175 41.404582
11395  0  1 24.269558 27.138287 44.258862
11396  0  1 24.269798 27.138325 47.113591
11397  0  1 24.269924 27.138343 49.968532
11398  0  1 24.269990 27.138351 52.823581
11399  0  1 24.270019 27.138355 55.678682
11400  0  1 24.269980 29.993809  1.427560
11401  0  1 24.269943 29.993827  4.282663
11402  0  1 24.269860 29.993870  7.137714
11403  0  1 24.269699 29.993952  9.992661
11404  0  1 24.269385 29.994106 12.847399
11405  0  1 24.268720 29.994401 15.701686
11406  0  1 24.267088 29.994970 18.554800
11407  0  1 24.262331 29.995968 21.404115
11408  0  1 24.241795 29.994917 24.236033
11409  0  1 24.261289 30.018902 27.091882
11410  0  1 24.261289 30.018902 30.014360
11411  0  1 24.241795 29.994917 32.870208
11412  0  1 24.262331 29.995968 35.702126
11413  0  1 24.267088 29.994970 38.551441
11414  0  1 24.268720 29.994401 41.404556
11415  0  1 24.269385 29.994106 44.258842
11416  0  1 24.269699 29.993952 47.113580
11417  0  1 24.269860 29.993870 49.968527
11418  0  1 24.269943 29.993827 52.823579
11419  0  1 24.269980 29.993809 55.678681
11420  0  1 24.269932 32.849263  1.427551
11421  0  1 24.269889 32.849306  4.282633
11422  0  1 24.269789 32.849406  7.137653
11423  0  1 24.269595 32.849601  9.992544
11424  0  1 24.269211 32.849985 12.847171
11425  0  1 24.268375 32.850821 15.701190
11426  0  1 24.266202 32.852993 18.553528
11427  0  1 24.259094 32.860101 21.400237
11428  0  1 24.223944 32.895252 24.220621
11429  0  1 24.263345 32.855850 27.136100
11430  0  1 24.263345 32.855850 29.970141
11431  0  1 24.223944 32.895252 32.885620
11432  0  1 24.259094 32.860101 35.706004
11433  0  1 24.266202 32.852993 38.552713
11434  0  1 24.268375 32.850821 41.405051
11435  0  1 24.269211 32.849985 44.259071
11436  0  1 24.269595 32.849601 47.113697
11437  0  1 24.269789 32.849406 49.968588
11438  0  1 24.269889 32.849306 52.823609
11439  0  1 24.269932 32.849263 55.678690
11440  0  1 24.269894 35.704714  1.427533
11441  0  1 24.269849 35.704784  4.282575
11442  0  1 24.269745 35.704946  7.137537
11443  0  1 24.269546 35.705261  9.992328
11444  0  1 24.269172 35.705875 12.846773
11445  0  1 24.268429 35.707150 15.700473
11446  0  1 24.266837 35.709988 18.552538
11447  0  1 24.263274 35.716064 21.401788
11448  0  1 24.258143 35.715662 24.258318
11449  0  1 24.266004 35.708004 27.124999
11450  0  1 24.266004 35.708004 29.981242
11451  0  1 24.258143 35.715662 32.847923
11452  0  1 24.263274 35.716064 35.704454
11453  0  1 24.266837 35.709988 38.553703
11454  0  1 24.268429 35.707150 41.405768
11455  0  1 24.269172 35.705875 44.259469
11456  0  1 24.269546 35.705261 47.113913
11457  0  1 24.269745 35.704946 49.968705
11458  0  1 24.269849 35.704784 52.823666
11459  0  1 24.269894 35.704714 55.678708
11460  0  1 24.269877 38.560155  1.427512
11461  0  1 24.269836 38.560252  4.282506
11462  0  1 24.269743 38.560472  7.137406
11463  0  1 24.269575 38.560885  9.992118
11464  0  1 24.269284 38.561627 12.846494
11465  0  1 24.268783 38.562911 15.700351
11466  0  1 24.267948 38.564734 18.553827
11467  0  1 24.266781 38.564994 21.409019
11468  0  1 24.266201 38.563014 24.266266
11469  0  1 24.267941 38.561109 27.124613
11470  0  1 24.267941 38.561109 29.981629
11471  0  1 24.266201 38.563014 32.839976
11472  0  1 24.266781 38.564994 35.697222
11473  0  1 24.267947 38.564734 38.552414
11474  0  1 24.268783 38.562911 41.405890
11475  0  1 24.269284 38.561627 44.259748
11476  0  1 24.269575 38.560885 47.114123
11477  0  1 24.269743 38.560472 49.968835
11478  0  1 24.269836 38.560252 52.823735
11479  0  1 24.269877 38.560155 55.678729
11480  0  1 24.269887 41.415572  1.427495
11481  0  1 24.269854 41.415689  4.282455
11482  0  1 24.269783 41.415943  7.137328
11483  0  1 24.269661 41.416376  9.992055
11484  0  1 24.269470 41.417020 12.846609
11485  0  1 24.269192 41.417758 15.701141
11486  0  1 24.268833 41.417969 18.556249
11487  0  1 24.268502 41.417232 21.412187
11488  0  1 24.268494 41.416111 24.268501
11489  0  1 24.268945 41.415415 27.124968
11490  0  1 24.268945 41.415415 29.981274
11491  0  1 24.268494 41.416111 32.837740
11492  0  1 24.268502 41.417232 35.694054
11493  0  1 24.268833 41.417969 38.549992
11494  0  1 24.269192 41.417758 41.405100
11495  0  1 24.269470 41.417020 44.259632
11496  0  1 24.269661 41.416376 47.114186
11497  0  1 24.269783 41.415943 49.968913
11498  0  1 24.269854 41.415689 52.823786
11499  0  1 24.269887 41.415572 55.678747
11500  0  1 24.269918 44.270948  1.427490
11501  0  1 24.269895 44.271067  4.282450
11502  0  1 24.269846 44.271306  7.137359
11503  0  1 24.269769 44.271649  9.992217
11504  0  1 24.269662 44.272009 12.847108
11505  0  1 24.269528 44.272150 15.702243
11506  0  1 24.269388 44.271862 18.557762
11507  0  1 24.269293 44.271260 21.413521
11508  0  1 24.269320 44.270676 24.269338
11509  0  1 24.269451 44.270352 27.125196
11510  0  1 24.269451 44.270352 29.981045
11511  0  1 24.269320 44.270676 32.836903
11512  0  1 24.269293 44.271260 35.692720
11513  0  1 24.269388 44.271862 38.548479
11514  0  1 24.269528 44.272150 41.403998
11515  0  1 24.269662 44.272009 44.259134
11516  0  1 24.269769 44.271649 47.114024
11517  0  1 24.269846 44.271306 49.968882
11518  0  1 24.269895 44.271067 52.823791
11519  0  1 24.269918 44.270948 55.678751
11520  0  1 24.269959 47.126259  1.427504
11521  0  1 24.269945 47.126358  4.282507
11522  0  1 24.269916 47.126533  7.137508
11523  0  1 24.269873 47.126725  9.992548
11524  0  1 24.269819 47.126821 12.847711
11525  0  1 24.269761 47.126712 15.703066
11526  0  1 24.269709 47.126403 18.558577
11527  0  1 24.269683 47.126021 21.414145
11528  0  1 24.269701 47.125706 24.269722
11529  0  1 24.269744 47.125537 27.125319
11530  0  1 24.269744 47.125537 29.980922
11531  0  1 24.269701 47.125706 32.836519
11532  0  1 24.269683 47.126021 35.692096
11533  0  1 24.269709 47.126403 38.547664
11534  0  1 24.269761 47.126712 41.403175
11535  0  1 24.269819 47.126821 44.258531
11536  0  1 24.269873 47.126725 47.113694
11537  0  1 24.269916 47.126533 49.968733
11538  0  1 24.269945 47.126358 52.823734
11539  0  1 24.269959 47.126259 55.678737
11540  0  1 24.269997 49.981488  1.427535
11541  0  1 24.269989 49.981552  4.282612
11542  0  1 24.269974 49.981647  7.137723
11543  0  1 24.269954 49.981712  9.992907
11544  0  1 24.269932 49.981683 12.848196
11545  0  1 24.269911 49.981536 15.703582
11546  0  1 24.269898 49.981315 18.559020
11547  0  1 24.269899 49.981091 21.414469
11548  0  1 24.269916 49.980918 24.269921
11549  0  1 24.269936 49.980827 27.125386
11550  0  1 24.269936 49.980827 29.980856
11551  0  1 24.269916 49.980918 32.836320
11552  0  1 24.269899 49.981091 35.691772
11553  0  1 24.269898 49.981315 38.547221
11554  0  1 24.269911 49.981536 41.402659
11555  0  1 24.269932 49.981683 44.258045
11556  0  1 24.269954 49.981712 47.113334
11557  0  1 24.269974 49.981647 49.968518
11558  0  1 24.269989 49.981552 52.823630
11559  0  1 24.269997 49.981488 55.678707
11560  0  1 24.270023 52.836632  1.427570
11561  0  1 24.270019 52.836663  4.282724
11562  0  1 24.270013 52.836699  7.137924
11563  0  1 24.270006 52.836704  9.993189
11564  0  1 24.270001 52.836652 12.848516
11565  0  1 24.270002 52.836548 15.703884
11566  0  1 24.270012 52.836420 18.559265
11567  0  1 24.270033 52.836301 21.414647
11568  0  1 24.270058 52.836213 24.270032
11569  0  1 24.270077 52.836166 27.125423
11570  0  1 24.270077 52.836166 29.980818
11571  0  1 24.270058 52.836213 32.836210
11572  0  1 24.270033 52.836301 35.691594
11573  0  1 24.270012 52.836420 38.546976
11574  0  1 24.270002 52.836548 41.402357
11575  0  1 24.270001 52.836652 44.257725
11576  0  1 24.270006 52.836704 47.113053
11577  0  1 24.270013 52.836699 49.968318
11578  0  1 24.270019 52.836663 52.823517
11579  0  1 24.270023 52.836632 55.678672
11580  0  1 24.270032 55.691714  1.427595
11581  0  1 24.270030 55.691724  4.282801
11582  0  1 24.270027 55.691732  7.138050
11583  0  1 24.270027 55.691728  9.993350
11584  0  1 24.270034 55.691705 12.848687
11585  0  1 24.270052 55.691666 15.704040
11586  0  1 24.270083 55.691622 18.559393
11587  0  1 24.270124 55.691581 21.414743
11588  0  1 24.270165 55.691550 24.270092
11589  0  1 24.270191 55.691534 27.125444
11590  0  1 24.270191 55.691534 29.980797
11591  0  1 24.270165 55.691550 32.836149
11592  0  1 24.270124 55.691581 35.691498
11593  0  1 24.270083 55.691622 38.546848
11594  0  1 24.270052 55.691666 41.402201
11595  0  1 24.270034 55.691705 44.257554
11596  0  1 24.270027 55.691728 47.112891
11597  0  1 24.270027 55.691732 49.968191
11598  0  1 24.270030 55.691724 52.823440
11599  0  1 24.270032 55.691714 55.678646
11600  0  1 27.125447  1.440472  1.427598
11601  0  1 27.125445  1.440466  4.282810
11602  0  1 27.125442  1.440462  7.138068
11603  0  1 27.125442  1.440470  9.993378
11604  0  1 27.125449  1.440494 12.848724
11605  0  1 27.125466  1.440530 15.704081
11606  0  1 27.125493  1.440569 18.559432
11607  0  1 27.125527  1.440604 21.414774
11608  0  1 27.125560  1.440628 24.270112
11609  0  1 27.125580  1.440640 27.125451
11610  0  1 27.125580  1.440640 29.980791
11611  0  1 27.125560  1.440628 32.836130
11612  0  1 27.125527  1.440604 35.691467
11613  0  1 27.125493  1.440569 38.546809
11614  0  1 27.125466  1.440530 41.402160
11615  0  1 27.125449  1.440494 44.257518
11616  0  1 27.125442  1.440470 47.112864
11617  0  1 27.125442  1.440462 49.968173
11618  0  1 27.125445  1.440466 52.823431
11619  0  1 27.125447  1.440472 55.678643
11620  0  1 27.125436  4.295554  1.427579
11621  0  1 27.125428  4.295529  4.282752
11622  0  1 27.125418  4.295504  7.137973
11623  0  1 27.125413  4.295512  9.993260
11624  0  1 27.125423  4.295574 12.848607
11625  0  1 27.125454  4.295684 15.703988
11626  0  1 27.125508  4.295812 18.559371
11627  0  1 27.125579  4.295928 21.414740
11628  0  1 27.125650  4.296013 24.270096
11629  0  1 27.125696  4.296057 27.125446
11630  0  1 27.125696  4.296057 29.980795
11631  0  1 27.125650  4.296013 32.836146
11632  0  1 27.125579  4.295928 35.691502
11633  0  1 27.125508  4.295812 38.546871
11634  0  1 27.125454  4.295684 41.402253
11635  0  1 27.125423  4.295574 44.257634
11636  0  1 27.125413  4.295512 47.112982
11637  0  1 27.125418  4.295504 49.968269
11638  0  1 27.125428  4.295529 52.823489
11639  0  1 27.125436  4.295554 55.678663
11640  0  1 27.125429  7.150698  1.427548
11641  0  1 27.125416  7.150645  4.282654
11642  0  1 27.125394  7.150571  7.137799
11643  0  1 27.125376  7.150533  9.993021
11644  0  1 27.125378  7.150590 12.848347
11645  0  1 27.125417  7.150758 15.703761
11646  0  1 27.125502  7.150991 18.559210
11647  0  1 27.125622  7.151222 21.414645
11648  0  1 27.125750  7.151396 24.270049
11649  0  1 27.125837  7.151488 27.125433
11650  0  1 27.125837  7.151488 29.980809
11651  0  1 27.125750  7.151396 32.836192
11652  0  1 27.125622  7.151222 35.691597
11653  0  1 27.125502  7.150991 38.547031
11654  0  1 27.125417  7.150758 41.402480
11655  0  1 27.125378  7.150590 44.257895
11656  0  1 27.125376  7.150533 47.113220
11657  0  1 27.125394  7.150571 49.968442
11658  0  1 27.125416  7.150645 52.823587
11659  0  1 27.125429  7.150698 55.678693
11660  0  1 27.125433 10.005925  1.427520
11661  0  1 27.125414 10.005842  4.282557
11662  0  1 27.125378 10.005699  7.137604
11663  0  1 27.125336 10.005556  9.992701
11664  0  1 27.125312 10.005518 12.847929
11665  0  1 27.125341 10.005680 15.703342
11666  0  1 27.125451 10.006028 18.558889
11667  0  1 27.125640 10.006435 21.414451
11668  0  1 27.125866 10.006767 24.269957
11669  0  1 27.126034 10.006949 27.125408
11670  0  1 27.126034 10.006949 29.980833
11671  0  1 27.125866 10.006767 32.836285
11672  0  1 27.125640 10.006435 35.691790
11673  0  1 27.125451 10.006028 38.547353
11674  0  1 27.125341 10.005680 41.402899
11675  0  1 27.125312 10.005518 44.258313
11676  0  1 27.125336 10.005556 47.113540
11677  0  1 27.125378 10.005699 49.968638
11678  0  1 27.125414 10.005842 52.823684
11679  0  1 27.125433 10.005925 55.678721
11680  0  1 27.125447 12.861235  1.427505
11681  0  1 27.125425 12.861134  4.282500
11682  0  1 27.125379 12.860936  7.137460
11683  0  1 27.125310 12.860664  9.992396
11684  0  1 27.125234 12.860408 12.847394
11685  0  1 27.125207 12.860387 15.702649
11686  0  1 27.125311 12.860775 18.558262
11687  0  1 27.125588 12.861449 21.414052
11688  0  1 27.125989 12.862091 24.269777
11689  0  1 27.126338 12.862469 27.125370
11690  0  1 27.126338 12.862469 29.980871
11691  0  1 27.125989 12.862091 32.836464
11692  0  1 27.125588 12.861449 35.692189
11693  0  1 27.125311 12.860775 38.547979
11694  0  1 27.125207 12.860387 41.403592
11695  0  1 27.125234 12.860408 44.258847
11696  0  1 27.125310 12.860664 47.113846
11697  0  1 27.125379 12.860936 49.968781
11698  0  1 27.125425 12.861134 52.823741
11699  0  1 27.125447 12.861235 55.678736
11700  0  1 27.125468 15.716607  1.427507
11701  0  1 27.125448 15.716509  4.282498
11702  0  1 27.125403 15.716299  7.137420
11703  0  1 27.125319 15.715951  9.992232
11704  0  1 27.125186 15.715461 12.846939
11705  0  1 27.125023 15.714966 15.701707
11706  0  1 27.124998 15.715018 18.557062
11707  0  1 27.125329 15.715948 21.413147
11708  0  1 27.126049 15.717218 24.269375
11709  0  1 27.126853 15.718099 27.125321
11710  0  1 27.126853 15.718099 29.980920
11711  0  1 27.126049 15.717218 32.836866
11712  0  1 27.125329 15.715948 35.693094
11713  0  1 27.124998 15.715018 38.549179
11714  0  1 27.125023 15.714966 41.404535
11715  0  1 27.125186 15.715461 44.259302
11716  0  1 27.125319 15.715951 47.114009
11717  0  1 27.125403 15.716299 49.968822
11718  0  1 27.125448 15.716509 52.823743
11719  0  1 27.125468 15.716607 55.678734
11720  0  1 27.125488 18.572017  1.427522
11721  0  1 27.125475 18.571938  4.282541
11722  0  1 27.125441 18.571760  7.137480
11723  0  1 27.125371 18.571434  9.992268
11724  0  1 27.125223 18.570872 12.846808
11725  0  1 27.124925 18.569958 15.701017
11726  0  1 27.124454 18.568805 18.555135
11727  0  1 27.124479 18.569193 21.410914
11728  0  1 27.125687 18.571527 24.268220
11729  0  1 27.127724 18.573821 27.125272
11730  0  1 27.127724 18.573821 29.980969
11731  0  1 27.125687 18.571527 32.838021
11732  0  1 27.124479 18.569193 35.695328
11733  0  1 27.124454 18.568805 38.551106
11734  0  1 27.124925 18.569958 41.405224
11735  0  1 27.125223 18.570872 44.259434
11736  0  1 27.125371 18.571434 47.113973
11737  0  1 27.125441 18.571760 49.968761
11738  0  1 27.125475 18.571938 52.823701
11739  0  1 27.125488 18.572017 55.678719
11740  0  1 27.125498 21.427447  1.427542
11741  0  1 27.125491 21.427393  4.282603
11742  0  1 27.125474 21.427270  7.137596
11743  0  1 27.125434 21.427036  9.992446
11744  0  1 27.125336 21.426594 12.847024
11745  0  1 27.125068 21.425726 15.701078
11746  0  1 27.124289 21.423946 18.554157
11747  0  1 27.122205 21.420447 21.405935
11748  0  1 27.123156 21.422605 24.264034
11749  0  1 27.128236 21.428455 27.124792
11750  0  1 27.128236 21.428455 29.981449
11751  0  1 27.123156 21.422605 32.842207
11752  0  1 27.122205 21.420447 35.700306
11753  0  1 27.124289 21.423946 38.552084
11754  0  1 27.125068 21.425726 41.405164
11755  0  1 27.125336 21.426594 44.259217
11756  0  1 27.125434 21.427036 47.113795
11757  0  1 27.125474 21.427270 49.968646
11758  0  1 27.125491 21.427393 52.823638
11759  0  1 27.125498 21.427447 55.678700
11760  0  1 27.125489 24.282885  1.427559
11761  0  1 27.125485 24.282856  4.282660
11762  0  1 27.125477 24.282789  7.137709
11763  0  1 27.125459 24.282664  9.992650
11764  0  1 27.125421 24.282424 12.847379
11765  0  1 27.125309 24.281930 15.701659
11766  0  1 27.124841 24.280748 18.554875
11767  0  1 27.122285 24.277334 21.405219
11768  0  1 27.109090 24.263677 24.247192
11769  0  1 27.115590 24.271682 27.115918
11770  0  1 27.115590 24.271682 29.990323
11771  0  1 27.109090 24.263677 32.859049
11772  0  1 27.122285 24.277334 35.701022
11773  0  1 27.124841 24.280748 38.551367
11774  0  1 27.125309 24.281930 41.404582
11775  0  1 27.125421 24.282424 44.258862
11776  0  1 27.125459 24.282663 47.113591
11777  0  1 27.125477 24.282789 49.968532
11778  0  1 27.125485 24.282856 52.823581
11779  0  1 27.125489 24.282885 55.678682
11780  0  1 27.125462 27.138328  1.427569
11781  0  1 27.125455 27.138321  4.282694
11782  0  1 27.125439 27.138305  7.137779
11783  0  1 27.125411 27.138277  9.992783
11784  0  1 27.125362 27.138228 12.847637
11785  0  1 27.125274 27.138140 15.702181
11786  0  1 27.125116 27.137982 18.555973
11787  0  1 27.125152 27.138018 21.407952
11788  0  1 27.131314 27.144180 24.259654
11789  0  1 27.167528 27.180394 27.144831
11790  0  1 27.167528 27.180394 29.961411
11791  0  1 27.131314 27.144180 32.846587
11792  0  1 27.125152 27.138018 35.698289
11793  0  1 27.125116 27.137982 38.550269
11794  0  1 27.125274 27.138140 41.404060
11795  0  1 27.125362 27.138228 44.258604
11796  0  1 27.125411 27.138277 47.113458
11797  0  1 27.125439 27.138305 49.968463
11798  0  1 27.125455 27.138321 52.823547
11799  0  1 27.125462 27.138328 55.678672
11800  0  1 27.125423 29.993772  1.427570
11801  0  1 27.125409 29.993786  4.282696
11802  0  1 27.125377 29.993818  7.137782
11803  0  1 27.125315 29.993881  9.992793
11804  0  1 27.125192 29.994003 12.847667
11805  0  1 27.124926 29.994270 15.702296
11806  0  1 27.124216 29.994980 18.556400
11807  0  1 27.121800 29.997395 21.408229
11808  0  1 27.114903 30.004292 24.234636
11809  0  1 26.969673 30.149523 26.727614
11810  0  1 26.969673 30.149523 30.378627
11811  0  1 27.114903 30.004292 32.871605
11812  0  1 27.121800 29.997395 35.698012
11813  0  1 27.124216 29.994980 38.549842
11814  0  1 27.124926 29.994270 41.403946
11815  0  1 27.125192 29.994003 44.258574
11816  0  1 27.125315 29.993881 47.113449
11817  0  1 27.125377 29.993818 49.968459
11818  0  1 27.125409 29.993786 52.823546
11819  0  1 27.125423 29.993772 55.678672
11820  0  1 27.125387 32.849216  1.427560
11821  0  1 27.125368 32.849252  4.282663
11822  0  1 27.125325 32.849336  7.137714
11823  0  1 27.125243 32.849497  9.992661
11824  0  1 27.125090 32.849810 12.847399
11825  0  1 27.124795 32.850476 15.701686
11826  0  1 27.124225 32.852107 18.554800
11827  0  1 27.123228 32.856864 21.404115
11828  0  1 27.124278 32.877400 24.236033
11829  0  1 27.100293 32.857906 27.091882
11830  0  1 27.100293 32.857906 30.014360
11831  0  1 27.124278 32.877400 32.870208
11832  0  1 27.123228 32.856864 35.702126
11833  0  1 27.124225 32.852107 38.551441
11834  0  1 27.124795 32.850476 41.404556
11835  0  1 27.125090 32.849810 44.258842
11836  0  1 27.125243 32.849497 47.113580
11837  0  1 27.125325 32.849336 49.968527
11838  0  1 27.125368 32.849252 52.823579
11839  0  1 27.125387 32.849216 55.678681
11840  0  1 27.125365 35.704656  1.427542
11841  0  1 27.125348 35.704717  4.282603
11842  0  1 27.125309 35.704859  7.137593
11843  0  1 27.125241 35.705131  9.992434
11844  0  1 27.125133 35.705653 12.846975
11845  0  1 27.124984 35.706714 15.700894
11846  0  1 27.124852 35.708996 18.553501
11847  0  1 27.124894 35.713615 21.403979
11848  0  1 27.122506 35.711328 24.260778
11849  0  1 27.119418 35.704104 27.119802
11850  0  1 27.119418 35.704104 29.986439
11851  0  1 27.122506 35.711328 32.845463
11852  0  1 27.124894 35.713615 35.702262
11853  0  1 27.124852 35.708996 38.552740
11854  0  1 27.124984 35.706714 41.405348
11855  0  1 27.125133 35.705653 44.259266
11856  0  1 27.125241 35.705131 47.113808
11857  0  1 27.125309 35.704859 49.968648
11858  0  1 27.125348 35.704717 52.823638
11859  0  1 27.125365 35.704656 55.678699
11860  0  1 27.125364 38.560088  1.427520
11861  0  1 27.125352 38.560175  4.282534
11862  0  1 27.125329 38.560373  7.137461
11863  0  1 27.125294 38.560741  9.992219
11864  0  1 27.125253 38.561393 12.846681
11865  0  1 27.125222 38.562496 15.700705
11866  0  1 27.125179 38.563974 18.554470
11867  0  1 27.124742 38.563748 21.409935
11868  0  1 27.123791 38.561247 24.266935
11869  0  1 27.123081 38.558855 27.123964
11870  0  1 27.123081 38.558855 29.982277
11871  0  1 27.123791 38.561247 32.839306
11872  0  1 27.124742 38.563748 35.696307
11873  0  1 27.125179 38.563974 38.551771
11874  0  1 27.125222 38.562495 41.405536
11875  0  1 27.125253 38.561393 44.259560
11876  0  1 27.125294 38.560741 47.114022
11877  0  1 27.125329 38.560373 49.968780
11878  0  1 27.125352 38.560175 52.823708
11879  0  1 27.125364 38.560088 55.678721
11880  0  1 27.125381 41.415501  1.427503
11881  0  1 27.125377 41.415608  4.282482
11882  0  1 27.125370 41.415841  7.137383
11883  0  1 27.125364 41.416232  9.992152
11884  0  1 27.125360 41.416803 12.846777
11885  0  1 27.125342 41.417420 15.701414
11886  0  1 27.125223 41.417465 18.556640
11887  0  1 27.124915 41.416538 21.412632
11888  0  1 27.124501 41.415225 24.268794
11889  0  1 27.124216 41.414343 27.124916
11890  0  1 27.124216 41.414343 29.981325
11891  0  1 27.124501 41.415225 32.837447
11892  0  1 27.124915 41.416538 35.693609
11893  0  1 27.125223 41.417465 38.549601
11894  0  1 27.125342 41.417420 41.404827
11895  0  1 27.125360 41.416803 44.259464
11896  0  1 27.125364 41.416232 47.114089
11897  0  1 27.125370 41.415841 49.968859
11898  0  1 27.125377 41.415608 52.823759
11899  0  1 27.125381 41.415501 55.678738
11900  0  1 27.125408 44.270877  1.427499
11901  0  1 27.125410 44.270987  4.282477
11902  0  1 27.125414 44.271207  7.137412
11903  0  1 27.125420 44.271517  9.992307
11904  0  1 27.125419 44.271826 12.847247
11905  0  1 27.125383 44.271897 15.702441
11906  0  1 27.125275 44.271530 18.558006
11907  0  1 27.125088 44.270849 21.413764
11908  0  1 27.124876 44.270195 24.269495
11909  0  1 27.124734 44.269815 27.125220
11910  0  1 27.124734 44.269815 29.981021
11911  0  1 27.124876 44.270195 32.836746
11912  0  1 27.125088 44.270849 35.692477
11913  0  1 27.125275 44.271530 38.548236
11914  0  1 27.125383 44.271897 41.403801
11915  0  1 27.125419 44.271826 44.258994
11916  0  1 27.125420 44.271517 47.113935
11917  0  1 27.125414 44.271207 49.968829
11918  0  1 27.125410 44.270987 52.823764
11919  0  1 27.125408 44.270877 55.678743
11920  0  1 27.125435 47.126192  1.427512
11921  0  1 27.125440 47.126283  4.282532
11922  0  1 27.125447 47.126443  7.137556
11923  0  1 27.125454 47.126611  9.992623
11924  0  1 27.125447 47.126675 12.847819
11925  0  1 27.125410 47.126529 15.703204
11926  0  1 27.125332 47.126183 18.558731
11927  0  1 27.125219 47.125770 21.414285
11928  0  1 27.125103 47.125432 24.269813
11929  0  1 27.125027 47.125247 27.125344
11930  0  1 27.125027 47.125247 29.980898
11931  0  1 27.125103 47.125432 32.836429
11932  0  1 27.125219 47.125770 35.691956
11933  0  1 27.125332 47.126183 38.547510
11934  0  1 27.125410 47.126529 41.403037
11935  0  1 27.125447 47.126675 44.258423
11936  0  1 27.125453 47.126611 47.113618
11937  0  1 27.125447 47.126443 49.968686
11938  0  1 27.125440 47.126283 52.823709
11939  0  1 27.125435 47.126192 55.678729
11940  0  1 27.125454 49.981423  1.427541
11941  0  1 27.125458 49.981482  4.282632
11942  0  1 27.125465 49.981567  7.137760
11943  0  1 27.125468 49.981617  9.992964
11944  0  1 27.125460 49.981569 12.848274
11945  0  1 27.125432 49.981405 15.703675
11946  0  1 27.125383 49.981169 18.559116
11947  0  1 27.125320 49.980934 21.414551
11948  0  1 27.125257 49.980755 24.269974
11949  0  1 27.125219 49.980660 27.125402
11950  0  1 27.125219 49.980660 29.980839
11951  0  1 27.125257 49.980755 32.836268
11952  0  1 27.125320 49.980934 35.691690
11953  0  1 27.125383 49.981169 38.547125
11954  0  1 27.125432 49.981405 41.402566
11955  0  1 27.125460 49.981569 44.257968
11956  0  1 27.125468 49.981617 47.113277
11957  0  1 27.125465 49.981567 49.968481
11958  0  1 27.125458 49.981482 52.823609
11959  0  1 27.125454 49.981423 55.678700
11960  0  1 27.125461 52.836570  1.427574
11961  0  1 27.125464 52.836597  4.282737
11962  0  1 27.125468 52.836627  7.137948
11963  0  1 27.125470 52.836624  9.993226
11964  0  1 27.125465 52.836564 12.848566
11965  0  1 27.125451 52.836453 15.703941
11966  0  1 27.125428 52.836322 18.559320
11967  0  1 27.125400 52.836201 21.414692
11968  0  1 27.125374 52.836112 24.270059
11969  0  1 27.125358 52.836066 27.125432
11970  0  1 27.125358 52.836066 29.980809
11971  0  1 27.125374 52.836112 32.836182
11972  0  1 27.125400 52.836201 35.691550
11973  0  1 27.125428 52.836322 38.546921
11974  0  1 27.125451 52.836453 41.402301
11975  0  1 27.125465 52.836564 44.257676
11976  0  1 27.125470 52.836624 47.113015
11977  0  1 27.125468 52.836627 49.968293
11978  0  1 27.125464 52.836597 52.823504
11979  0  1 27.125461 52.836570 55.678667
11980  0  1 27.125458 55.691653  1.427596
11981  0  1 27.125458 55.691660  4.282805
11982  0  1 27.125459 55.691666  7.138060
11983  0  1 27.125461 55.691659  9.993367
11984  0  1 27.125462 55.691634 12.848710
11985  0  1 27.125463 55.691596 15.704066
11986  0  1 27.125464 55.691553 18.559417
11987  0  1 27.125467 55.691514 21.414759
11988  0  1 27.125471 55.691486 24.270101
11989  0  1 27.125473 55.691471 27.125446
11990  0  1 27.125473 55.691471 29.980795
11991  0  1 27.125471 55.691486 32.836141
11992  0  1 27.125467 55.691514 35.691482
11993  0  1 27.125464 55.691553 38.546825
11994  0  1 27.125463 55.691596 41.402175
11995  0  1 27.125462 55.691634 44.257531
11996  0  1 27.125461 55.691659 47.112875
11997  0  1 27.125459 55.691666 49.968181
11998  0  1 27.125458 55.691660 52.823436
11999  0  1 27.125458 55.691653 55.678645
12000  0  1 29.980872  1.440409  1.427596
12001  0  1 29.980871  1.440401  4.282805
12002  0  1 29.980870  1.440395  7.138060
12003  0  1 29.980869  1.440402  9.993367
12004  0  1 29.980868  1.440427 12.848710
12005  0  1 29.980867  1.440466 15.704066
12006  0  1 29.980865  1.440509 18.559417
12007  0  1 29.980862  1.440547 21.414759
12008  0  1 29.980859  1.440575 24.270101
12009  0  1 29.980856  1.440590 27.125446
12010  0  1 29.980856  1.440590 29.980795
12011  0  1 29.980859  1.440575 32.836141
12012  0  1 29.980862  1.440547 35.691482
12013  0  1 29.980865  1.440509 38.546825
12014  0  1 29.980867  1.440466 41.402175
12015  0  1 29.980868  1.440427 44.257531
12016  0  1 29.980869  1.440402 47.112875
12017  0  1 29.980870  1.440395 49.968181
12018  0  1 29.980871  1.440401 52.823436
12019  0  1 29.980872  1.440409 55.678645
12020  0  1 29.980868  4.295492  1.427574
12021  0  1 29.980865  4.295464  4.282737
12022  0  1 29.980861  4.295434  7.137948
12023  0  1 29.980860  4.295437  9.993226
12024  0  1 29.980865  4.295497 12.848566
12025  0  1 29.980879  4.295608 15.703941
12026  0  1 29.980902  4.295739 18.559321
12027  0  1 29.980930  4.295860 21.414692
12028  0  1 29.980955  4.295949 24.270059
12029  0  1 29.980971  4.295996 27.125432
12030  0  1 29.980971  4.295996 29.980809
12031  0  1 29.980955  4.295949 32.836182
12032  0  1 29.980930  4.295860 35.691550
12033  0  1 29.980902  4.295739 38.546921
12034  0  1 29.980879  4.295608 41.402301
12035  0  1 29.980865  4.295497 44.257676
12036  0  1 29.980860  4.295437 47.113015
12037  0  1 29.980861  4.295434 49.968293
12038  0  1 29.980865  4.295464 52.823504
12039  0  1 29.980868  4.295492 55.678667
12040  0  1 29.980876  7.150638  1.427541
12041  0  1 29.980871  7.150579  4.282632
12042  0  1 29.980865  7.150495  7.137760
12043  0  1 29.980861  7.150445  9.992964
12044  0  1 29.980870  7.150492 12.848274
12045  0  1 29.980897  7.150656 15.703675
12046  0  1 29.980946  7.150892 18.559116
12047  0  1 29.981010  7.151127 21.414551
12048  0  1 29.981072  7.151307 24.269974
12049  0  1 29.981111  7.151401 27.125402
12050  0  1 29.981111  7.151401 29.980839
12051  0  1 29.981072  7.151307 32.836268
12052  0  1 29.981010  7.151127 35.691690
12053  0  1 29.980946  7.150892 38.547125
12054  0  1 29.980897  7.150656 41.402566
12055  0  1 29.980870  7.150492 44.257968
12056  0  1 29.980861  7.150445 47.113277
12057  0  1 29.980865  7.150495 49.968481
12058  0  1 29.980871  7.150579 52.823609
12059  0  1 29.980876  7.150638 55.678700
12060  0  1 29.980894 10.005870  1.427512
12061  0  1 29.980890 10.005778  4.282532
12062  0  1 29.980882 10.005618  7.137556
12063  0  1 29.980876 10.005450  9.992623
12064  0  1 29.980883 10.005386 12.847819
12065  0  1 29.980920 10.005532 15.703204
12066  0  1 29.980998 10.005878 18.558731
12067  0  1 29.981110 10.006291 21.414285
12068  0  1 29.981227 10.006630 24.269813
12069  0  1 29.981302 10.006814 27.125344
12070  0  1 29.981302 10.006814 29.980898
12071  0  1 29.981227 10.006630 32.836429
12072  0  1 29.981110 10.006291 35.691956
12073  0  1 29.980998 10.005878 38.547510
12074  0  1 29.980920 10.005532 41.403037
12075  0  1 29.980883 10.005386 44.258423
12076  0  1 29.980876 10.005450 47.113618
12077  0  1 29.980882 10.005618 49.968686
12078  0  1 29.980890 10.005778 52.823709
12079  0  1 29.980894 10.005870 55.678729
12080  0  1 29.980921 12.861184  1.427499
12081  0  1 29.980919 12.861074  4.282477
12082  0  1 29.980915 12.860854  7.137412
12083  0  1 29.980909 12.860544  9.992307
12084  0  1 29.980910 12.860236 12.847247
12085  0  1 29.980946 12.860164 15.702441
12086  0  1 29.981054 12.860532 18.558006
12087  0  1 29.981241 12.861212 21.413764
12088  0  1 29.981453 12.861867 24.269495
12089  0  1 29.981596 12.862246 27.125220
12090  0  1 29.981596 12.862246 29.981021
12091  0  1 29.981453 12.861867 32.836746
12092  0  1 29.981241 12.861212 35.692477
12093  0  1 29.981054 12.860532 38.548236
12094  0  1 29.980946 12.860164 41.403801
12095  0  1 29.980910 12.860236 44.258994
12096  0  1 29.980909 12.860544 47.113935
12097  0  1 29.980915 12.860854 49.968829
12098  0  1 29.980919 12.861074 52.823764
12099  0  1 29.980921 12.861184 55.678743
12100  0  1 29.980948 15.716560  1.427503
12101  0  1 29.980952 15.716453  4.282482
12102  0  1 29.980959 15.716221  7.137383
12103  0  1 29.980966 15.715829  9.992152
12104  0  1 29.980970 15.715258 12.846777
12105  0  1 29.980988 15.714641 15.701414
12106  0  1 29.981107 15.714596 18.556640
12107  0  1 29.981414 15.715523 21.412632
12108  0  1 29.981829 15.716836 24.268794
12109  0  1 29.982113 15.717718 27.124916
12110  0  1 29.982113 15.717718 29.981325
12111  0  1 29.981829 15.716836 32.837447
12112  0  1 29.981414 15.715523 35.693609
12113  0  1 29.981107 15.714596 38.549601
12114  0  1 29.980988 15.714641 41.404827
12115  0  1 29.980970 15.715258 44.259464
12116  0  1 29.980966 15.715829 47.114089
12117  0  1 29.980959 15.716221 49.968859
12118  0  1 29.980952 15.716453 52.823759
12119  0  1 29.980948 15.716560 55.678738
12120  0  1 29.980965 18.571974  1.427520
12121  0  1 29.980977 18.571887  4.282534
12122  0  1 29.981001 18.571688  7.137461
12123  0  1 29.981036 18.571320  9.992219
12124  0  1 29.981076 18.570668 12.846681
12125  0  1 29.981107 18.569566 15.700705
12126  0  1 29.981150 18.568087 18.554470
12127  0  1 29.981588 18.568313 21.409935
12128  0  1 29.982539 18.570814 24.266935
12129  0  1 29.983248 18.573206 27.123964
12130  0  1 29.983248 18.573206 29.982277
12131  0  1 29.982539 18.570814 32.839306
12132  0  1 29.981588 18.568313 35.696307
12133  0  1 29.981150 18.568087 38.551771
12134  0  1 29.981107 18.569566 41.405536
12135  0  1 29.981076 18.570668 44.259560
12136  0  1 29.981036 18.571320 47.114022
12137  0  1 29.981001 18.571688 49.968780
12138  0  1 29.980977 18.571887 52.823708
12139  0  1 29.980965 18.571974 55.678721
12140  0  1 29.980964 21.427406  1.427542
12141  0  1 29.980982 21.427344  4.282603
12142  0  1 29.981021 21.427203  7.137593
12143  0  1 29.981089 21.426931  9.992434
12144  0  1 29.981197 21.426409 12.846975
12145  0  1 29.981346 21.425347 15.700894
12146  0  1 29.981477 21.423065 18.553501
12147  0  1 29.981435 21.418447 21.403979
12148  0  1 29.983823 21.420733 24.260778
12149  0  1 29.986911 21.427957 27.119802
12150  0  1 29.986911 21.427957 29.986439
12151  0  1 29.983823 21.420733 32.845463
12152  0  1 29.981435 21.418447 35.702262
12153  0  1 29.981477 21.423065 38.552740
12154  0  1 29.981346 21.425347 41.405348
12155  0  1 29.981197 21.426409 44.259266
12156  0  1 29.981089 21.426931 47.113808
12157  0  1 29.981021 21.427203 49.968648
12158  0  1 29.980982 21.427344 52.823638
12159  0  1 29.980964 21.427406 55.678700
12160  0  1 29.980943 24.282846  1.427560
12161  0  1 29.980961 24.282809  4.282663
12162  0  1 29.981004 24.282726  7.137714
12163  0  1 29.981086 24.282564  9.992661
12164  0  1 29.981240 24.282251 12.847399
12165  0  1 29.981535 24.281586 15.701686
12166  0  1 29.982104 24.279954 18.554800
12167  0  1 29.983102 24.275197 21.404115
12168  0  1 29.982051 24.254661 24.236033
12169  0  1 30.006036 24.274155 27.091882
12170  0  1 30.006036 24.274155 30.014360
12171  0  1 29.982051 24.254661 32.870208
12172  0  1 29.983102 24.275197 35.702126
12173  0  1 29.982104 24.279954 38.551441
12174  0  1 29.981535 24.281586 41.404556
12175  0  1 29.981240 24.282251 44.258842
12176  0  1 29.981086 24.282564 47.113580
12177  0  1 29.981004 24.282726 49.968527
12178  0  1 29.980961 24.282809 52.823579
12179  0  1 29.980943 24.282846 55.678681
12180  0  1 29.980906 27.138289  1.427570
12181  0  1 29.980920 27.138275  4.282696
12182  0  1 29.980952 27.138243  7.137782
12183  0  1 29.981015 27.138181  9.992793
12184  0  1 29.981137 27.138058 12.847667
12185  0  1 29.981404 27.137792 15.702296
12186  0  1 29.982114 27.137082 18.556400
12187  0  1 29.984529 27.134666 21.408229
12188  0  1 29.991426 27.127769 24.234636
12189  0  1 30.136657 26.982539 26.727614
12190  0  1 30.136657 26.982539 30.378627
12191  0  1 29.991426 27.127769 32.871605
12192  0  1 29.984529 27.134666 35.698012
12193  0  1 29.982114 27.137082 38.549842
12194  0  1 29.981404 27.137792 41.403946
12195  0  1 29.981137 27.138058 44.258574
12196  0  1 29.981015 27.138181 47.113449
12197  0  1 29.980952 27.138243 49.968459
12198  0  1 29.980920 27.138275 52.823546
12199  0  1 29.980906 27.138289 55.678672
12200  0  1 29.980868 29.993734  1.427569
12201  0  1 29.980875 29.993741  4.282694
12202  0  1 29.980890 29.993756  7.137779
12203  0  1 29.980919 29.993785  9.992783
12204  0  1 29.980968 29.993834 12.847637
12205  0  1 29.981055 29.993921 15.702181
12206  0  1 29.981213 29.994079 18.555973
12207  0  1 29.981177 29.994043 21.407952
12208  0  1 29.975015 29.987881 24.259654
12209  0  1 29.938801 29.951667 27.144831
12210  0  1 29.938801 29.951667 29.961411
12211  0  1 29.975015 29.987881 32.846587
12212  0  1 29.981177 29.994043 35.698289
12213  0  1 29.981213 29.994079 38.550269
12214  0  1 29.981055 29.993921 41.404060
12215  0  1 29.980968 29.993834 44.258604
12216  0  1 29.980919 29.993785 47.113458
12217  0  1 29.980890 29.993756 49.968463
12218  0  1 29.980875 29.993741 52.823547
12219  0  1 29.980868 29.993734 55.678672
12220  0  1 29.980840 32.849176  1.427559
12221  0  1 29.980844 32.849205  4.282660
12222  0  1 29.980853 32.849272  7.137709
12223  0  1 29.980870 32.849398  9.992650
12224  0  1 29.980909 32.849637 12.847379
12225  0  1 29.981020 32.850131 15.701659
12226  0  1 29.981489 32.851314 18.554875
12227  0  1 29.984044 32.854728 21.405219
12228  0  1 29.997239 32.868385 24.247192
12229  0  1 29.990740 32.860379 27.115918
12230  0  1 29.990740 32.860379 29.990323
12231  0  1 29.997239 32.868385 32.859049
12232  0  1 29.984044 32.854728 35.701022
12233  0  1 29.981489 32.851314 38.551367
12234  0  1 29.981020 32.850131 41.404582
12235  0  1 29.980909 32.849637 44.258862
12236  0  1 29.980870 32.849398 47.113591
12237  0  1 29.980853 32.849272 49.968532
12238  0  1 29.980844 32.849205 52.823581
12239  0  1 29.980840 32.849176 55.678682
12240  0  1 29.980832 35.704615  1.427542
12241  0  1 29.980838 35.704668  4.282603
12242  0  1 29.980855 35.704792  7.137596
12243  0  1 29.980895 35.705026  9.992446
12244  0  1 29.980993 35.705467 12.847024
12245  0  1 29.981261 35.706336 15.701078
12246  0  1 29.982040 35.708116 18.554157
12247  0  1 29.984124 35.711615 21.405935
12248  0  1 29.983174 35.709457 24.264034
12249  0  1 29.978094 35.703606 27.124792
12250  0  1 29.978094 35.703606 29.981449
12251  0  1 29.983174 35.709457 32.842207
12252  0  1 29.984124 35.711615 35.700306
12253  0  1 29.982040 35.708116 38.552084
12254  0  1 29.981261 35.706336 41.405164
12255  0  1 29.980993 35.705467 44.259217
12256  0  1 29.980895 35.705026 47.113795
12257  0  1 29.980855 35.704792 49.968646
12258  0  1 29.980838 35.704668 52.823638
12259  0  1 29.980832 35.704615 55.678700
12260  0  1 29.980841 38.560044  1.427522
12261  0  1 29.980855 38.560123  4.282541
12262  0  1 29.980888 38.560301  7.137480
12263  0  1 29.980959 38.560627  9.992268
12264  0  1 29.981107 38.561189 12.846808
12265  0  1 29.981404 38.562103 15.701017
12266  0  1 29.981875 38.563257 18.555135
12267  0  1 29.981850 38.562868 21.410914
12268  0  1 29.980642 38.560534 24.268220
12269  0  1 29.978606 38.558241 27.125272
12270  0  1 29.978606 38.558241 29.980969
12271  0  1 29.980642 38.560534 32.838021
12272  0  1 29.981850 38.562868 35.695328
12273  0  1 29.981875 38.563257 38.551106
12274  0  1 29.981404 38.562103 41.405224
12275  0  1 29.981107 38.561189 44.259434
12276  0  1 29.980959 38.560627 47.113973
12277  0  1 29.980888 38.560301 49.968761
12278  0  1 29.980855 38.560123 52.823700
12279  0  1 29.980841 38.560044 55.678719
12280  0  1 29.980861 41.415454  1.427507
12281  0  1 29.980881 41.415552  4.282498
12282  0  1 29.980927 41.415762  7.137420
12283  0  1 29.981010 41.416110  9.992232
12284  0  1 29.981144 41.416600 12.846939
12285  0  1 29.981306 41.417096 15.701707
12286  0  1 29.981332 41.417043 18.557062
12287  0  1 29.981000 41.416114 21.413147
12288  0  1 29.980280 41.414843 24.269375
12289  0  1 29.979476 41.413962 27.125321
12290  0  1 29.979476 41.413962 29.980920
12291  0  1 29.980280 41.414843 32.836866
12292  0  1 29.981000 41.416114 35.693094
12293  0  1 29.981332 41.417043 38.549179
12294  0  1 29.981306 41.417096 41.404535
12295  0  1 29.981144 41.416600 44.259302
12296  0  1 29.981010 41.416110 47.114009
12297  0  1 29.980927 41.415762 49.968822
12298  0  1 29.980881 41.415552 52.823743
12299  0  1 29.980861 41.415454 55.678734
12300  0  1 29.980882 44.270826  1.427505
12301  0  1 29.980904 44.270927  4.282500
12302  0  1 29.980951 44.271125  7.137460
12303  0  1 29.981020 44.271398  9.992396
12304  0  1 29.981096 44.271653 12.847394
12305  0  1 29.981122 44.271675 15.702649
12306  0  1 29.981018 44.271286 18.558262
12307  0  1 29.980742 44.270613 21.414052
12308  0  1 29.980341 44.269971 24.269777
12309  0  1 29.979991 44.269593 27.125370
12310  0  1 29.979991 44.269593 29.980871
12311  0  1 29.980341 44.269971 32.836464
12312  0  1 29.980742 44.270613 35.692189
12313  0  1 29.981018 44.271286 38.547979
12314  0  1 29.981122 44.271675 41.403592
12315  0  1 29.981096 44.271653 44.258847
12316  0  1 29.981020 44.271398 47.113846
12317  0  1 29.980951 44.271125 49.968781
12318  0  1 29.980904 44.270927 52.823741
12319  0  1 29.980882 44.270826 55.678736
12320  0  1 29.980896 47.126136  1.427520
12321  0  1 29.980916 47.126219  4.282557
12322  0  1 29.980952 47.126362  7.137604
12323  0  1 29.980994 47.126505  9.992701
12324  0  1 29.981018 47.126544 12.847929
12325  0  1 29.980988 47.126382 15.703342
12326  0  1 29.980878 47.126033 18.558889
12327  0  1 29.980689 47.125626 21.414451
12328  0  1 29.980464 47.125294 24.269957
12329  0  1 29.980295 47.125113 27.125408
12330  0  1 29.980295 47.125113 29.980833
12331  0  1 29.980464 47.125294 32.836285
12332  0  1 29.980689 47.125626 35.691790
12333  0  1 29.980878 47.126033 38.547353
12334  0  1 29.980988 47.126382 41.402899
12335  0  1 29.981018 47.126544 44.258313
12336  0  1 29.980994 47.126505 47.113540
12337  0  1 29.980952 47.126362 49.968638
12338  0  1 29.980916 47.126219 52.823684
12339  0  1 29.980896 47.126136 55.678721
12340  0  1 29.980900 49.981364  1.427548
12341  0  1 29.980914 49.981416  4.282654
12342  0  1 29.980935 49.981491  7.137799
12343  0  1 29.980954 49.981528  9.993021
12344  0  1 29.980951 49.981471 12.848347
12345  0  1 29.980912 49.981304 15.703761
12346  0  1 29.980828 49.981070 18.559210
12347  0  1 29.980707 49.980839 21.414645
12348  0  1 29.980579 49.980665 24.270049
12349  0  1 29.980492 49.980573 27.125433
12350  0  1 29.980492 49.980573 29.980809
12351  0  1 29.980579 49.980665 32.836192
12352  0  1 29.980707 49.980839 35.691597
12353  0  1 29.980828 49.981070 38.547031
12354  0  1 29.980912 49.981304 41.402480
12355  0  1 29.980951 49.981471 44.257895
12356  0  1 29.980954 49.981528 47.113220
12357  0  1 29.980935 49.981491 49.968442
12358  0  1 29.980914 49.981416 52.823587
12359  0  1 29.980900 49.981364 55.678693
12360  0  1 29.980894 52.836508  1.427579
12361  0  1 29.980901 52.836532  4.282752
12362  0  1 29.980911 52.836557  7.137973
12363  0  1 29.980916 52.836549  9.993260
12364  0  1 29.980907 52.836487 12.848607
12365  0  1 29.980876 52.836378 15.703988
12366  0  1 29.980821 52.836250 18.559371
12367  0  1 29.980750 52.836133 21.414740
12368  0  1 29.980679 52.836048 24.270096
12369  0  1 29.980634 52.836004 27.125446
12370  0  1 29.980634 52.836004 29.980795
12371  0  1 29.980679 52.836048 32.836146
12372  0  1 29.980750 52.836133 35.691502
12373  0  1 29.980821 52.836250 38.546871
12374  0  1 29.980876 52.836378 41.402253
12375  0  1 29.980907 52.836487 44.257634
12376  0  1 29.980916 52.836549 47.112982
12377  0  1 29.980911 52.836557 49.968269
12378  0  1 29.980901 52.836532 52.823489
12379  0  1 29.980894 52.836508 55.678663
12380  0  1 29.980882 55.691590  1.427598
12381  0  1 29.980885 55.691596  4.282810
12382  0  1 29.980888 55.691599  7.138068
12383  0  1 29.980887 55.691591  9.993378
12384  0  1 29.980880 55.691567 12.848724
12385  0  1 29.980864 55.691531 15.704081
12386  0  1 29.980837 55.691492 18.559432
12387  0  1 29.980803 55.691458 21.414774
12388  0  1 29.980770 55.691433 24.270112
12389  0  1 29.980749 55.691421 27.125451
12390  0  1 29.980749 55.691421 29.980791
12391  0  1 29.980770 55.691433 32.836130
12392  0  1 29.980803 55.691458 35.691467
12393  0  1 29.980837 55.691492 38.546809
12394  0  1 29.980864 55.691531 41.402160
12395  0  1 29.980880 55.691567 44.257518
12396  0  1 29.980887 55.691591 47.112864
12397  0  1 29.980888 55.691599 49.968173
12398  0  1 29.980885 55.691596 52.823431
12399  0  1 29.980882 55.691590 55.678643
12400  0  1 32.836297  1.440347  1.427595
12401  0  1 32.836299  1.440338  4.282801
12402  0  1 32.836302  1.440329  7.138050
12403  0  1 32.836302  1.440333  9.993350
12404  0  1 32.836296  1.440357 12.848687
12405  0  1 32.836278  1.440395 15.704040
12406  0  1 32.836246  1.440440 18.559393
12407  0  1 32.836205  1.440481 21.414743
12408  0  1 32.836164  1.440511 24.270092
12409  0  1 32.836139  1.440527 27.125444
12410  0  1 32.836139  1.440527 29.980797
12411  0  1 32.836164  1.440511 32.836149
12412  0  1 32.836205  1.440481 35.691498
12413  0  1 32.836246  1.440440 38.546848
12414  0  1 32.836278  1.440395 41.402201
12415  0  1 32.836296  1.440357 44.257554
12416  0  1 32.836302  1.440333 47.112891
12417  0  1 32.836302  1.440329 49.968191
12418  0  1 32.836299  1.440338 52.823440
12419  0  1 32.836297  1.440347 55.678646
12420  0  1 32.836307  4.295429  1.427570
12421  0  1 32.836310  4.295398  4.282724
12422  0  1 32.836316  4.295362  7.137924
12423  0  1 32.836323  4.295358  9.993189
12424  0  1 32.836328  4.295410 12.848516
12425  0  1 32.836327  4.295514 15.703884
12426  0  1 32.836317  4.295641 18.559265
12427  0  1 32.836297  4.295760 21.414647
12428  0  1 32.836271  4.295849 24.270032
12429  0  1 32.836253  4.295895 27.125423
12430  0  1 32.836253  4.295895 29.980818
12431  0  1 32.836271  4.295849 32.836210
12432  0  1 32.836297  4.295760 35.691594
12433  0  1 32.836317  4.295641 38.546976
12434  0  1 32.836327  4.295514 41.402357
12435  0  1 32.836328  4.295410 44.257725
12436  0  1 32.836323  4.295358 47.113053
12437  0  1 32.836316  4.295362 49.968318
12438  0  1 32.836310  4.295398 52.823517
12439  0  1 32.836307  4.295429 55.678672
12440  0  1 32.836333  7.150574  1.427535
12441  0  1 32.836340  7.150510  4.282612
12442  0  1 32.836355  7.150414  7.137723
12443  0  1 32.836375  7.150349  9.992907
12444  0  1 32.836398  7.150379 12.848196
12445  0  1 32.836419  7.150525 15.703582
12446  0  1 32.836432  7.150746 18.559020
12447  0  1 32.836431  7.150971 21.414469
12448  0  1 32.836414  7.151143 24.269921
12449  0  1 32.836393  7.151235 27.125386
12450  0  1 32.836393  7.151235 29.980856
12451  0  1 32.836414  7.151143 32.836320
12452  0  1 32.836431  7.150971 35.691772
12453  0  1 32.836432  7.150746 38.547221
12454  0  1 32.836419  7.150525 41.402659
12455  0  1 32.836398  7.150379 44.258045
12456  0  1 32.836375  7.150349 47.113334
12457  0  1 32.836355  7.150414 49.968518
12458  0  1 32.836340  7.150510 52.823630
12459  0  1 32.836333  7.150574 55.678707
12460  0  1 32.836370 10.005802  1.427504
12461  0  1 32.836385 10.005704  4.282507
12462  0  1 32.836414 10.005528  7.137508
12463  0  1 32.836456 10.005336  9.992548
12464  0  1 32.836510 10.005240 12.847711
12465  0  1 32.836568 10.005349 15.703066
12466  0  1 32.836620 10.005658 18.558577
12467  0  1 32.836647 10.006040 21.414145
12468  0  1 32.836628 10.006355 24.269722
12469  0  1 32.836585 10.006524 27.125319
12470  0  1 32.836585 10.006524 29.980922
12471  0  1 32.836628 10.006355 32.836519
12472  0  1 32.836647 10.006040 35.692096
12473  0  1 32.836620 10.005658 38.547664
12474  0  1 32.836568 10.005349 41.403175
12475  0  1 32.836510 10.005240 44.258531
12476  0  1 32.836456 10.005336 47.113694
12477  0  1 32.836414 10.005528 49.968733
12478  0  1 32.836385 10.005704 52.823734
12479  0  1 32.836370 10.005802 55.678737
12480  0  1 32.836411 12.861113  1.427490
12481  0  1 32.836434 12.860995  4.282450
12482  0  1 32.836483 12.860756  7.137359
12483  0  1 32.836560 12.860412  9.992217
12484  0  1 32.836668 12.860052 12.847108
12485  0  1 32.836802 12.859912 15.702243
12486  0  1 32.836942 12.860200 18.557762
12487  0  1 32.837037 12.860801 21.413521
12488  0  1 32.837009 12.861385 24.269338
12489  0  1 32.836878 12.861710 27.125196
12490  0  1 32.836878 12.861710 29.981045
12491  0  1 32.837009 12.861385 32.836903
12492  0  1 32.837037 12.860801 35.692720
12493  0  1 32.836942 12.860200 38.548479
12494  0  1 32.836802 12.859912 41.403998
12495  0  1 32.836668 12.860052 44.259134
12496  0  1 32.836560 12.860412 47.114024
12497  0  1 32.836483 12.860756 49.968882
12498  0  1 32.836434 12.860995 52.823791
12499  0  1 32.836411 12.861113 55.678751
12500  0  1 32.836442 15.716489  1.427495
12501  0  1 32.836475 15.716373  4.282455
12502  0  1 32.836547 15.716119  7.137328
12503  0  1 32.836669 15.715686  9.992055
12504  0  1 32.836859 15.715042 12.846609
12505  0  1 32.837137 15.714303 15.701141
12506  0  1 32.837497 15.714093 18.556249
12507  0  1 32.837828 15.714829 21.412187
12508  0  1 32.837836 15.715950 24.268501
12509  0  1 32.837385 15.716646 27.124968
12510  0  1 32.837385 15.716646 29.981274
12511  0  1 32.837836 15.715950 32.837740
12512  0  1 32.837828 15.714829 35.694054
12513  0  1 32.837497 15.714093 38.549992
12514  0  1 32.837137 15.714303 41.405100
12515  0  1 32.836859 15.715042 44.259632
12516  0  1 32.836669 15.715686 47.114186
12517  0  1 32.836547 15.716119 49.968913
12518  0  1 32.836475 15.716373 52.823786
12519  0  1 32.836442 15.716489 55.678747
12520  0  1 32.836452 18.571906  1.427512
12521  0  1 32.836494 18.571810  4.282506
12522  0  1 32.836586 18.571589  7.137406
12523  0  1 32.836754 18.571176  9.992118
12524  0  1 32.837046 18.570435 12.846494
12525  0  1 32.837547 18.569151 15.700351
12526  0  1 32.838382 18.567328 18.553827
12527  0  1 32.839548 18.567068 21.409019
12528  0  1 32.840129 18.569047 24.266266
12529  0  1 32.838389 18.570952 27.124613
12530  0  1 32.838389 18.570952 29.981629
12531  0  1 32.840129 18.569047 32.839976
12532  0  1 32.839548 18.567068 35.697222
12533  0  1 32.838382 18.567327 38.552414
12534  0  1 32.837547 18.569151 41.405890
12535  0  1 32.837046 18.570435 44.259748
12536  0  1 32.836754 18.571176 47.114123
12537  0  1 32.836586 18.571589 49.968835
12538  0  1 32.836494 18.571810 52.823735
12539  0  1 32.836452 18.571906 55.678729
12540  0  1 32.836436 21.427347  1.427533
12541  0  1 32.836481 21.427277  4.282575
12542  0  1 32.836585 21.427115  7.137537
12543  0  1 32.836783 21.426800  9.992328
12544  0  1 32.837157 21.426186 12.846773
12545  0  1 32.837900 21.424911 15.700473
12546  0  1 32.839492 21.422073 18.552538
12547  0  1 32.843056 21.415997 21.401788
12548  0  1 32.848187 21.416399 24.258318
12549  0  1 32.840325 21.424057 27.124999
12550  0  1 32.840325 21.424057 29.981242
12551  0  1 32.848187 21.416399 32.847923
12552  0  1 32.843056 21.415997 35.704454
12553  0  1 32.839492 21.422073 38.553703
12554  0  1 32.837900 21.424911 41.405768
12555  0  1 32.837157 21.426186 44.259469
12556  0  1 32.836783 21.426800 47.113913
12557  0  1 32.836585 21.427115 49.968705
12558  0  1 32.836481 21.427277 52.823666
12559  0  1 32.836436 21.427347 55.678708
12560  0  1 32.836397 24.282798  1.427551
12561  0  1 32.836440 24.282755  4.282633
12562  0  1 32.836540 24.282655  7.137653
12563  0  1 32.836735 24.282461  9.992544
12564  0  1 32.837119 24.282077 12.847171
12565  0  1 32.837955 24.281241 15.701190
12566  0  1 32.840127 24.279068 18.553528
12567  0  1 32.847235 24.271960 21.400237
12568  0  1 32.882386 24.236810 24.220621
12569  0  1 32.842984 24.276211 27.136100
12570  0  1 32.842984 24.276211 29.970141
12571  0  1 32.882386 24.236810 32.885620
12572  0  1 32.847235 24.271960 35.706004
12573  0  1 32.840127 24.279068 38.552713
12574  0  1 32.837955 24.281241 41.405051
12575  0  1 32.837119 24.282077 44.259071
12576  0  1 32.836735 24.282461 47.113697
12577  0  1 32.836540 24.282655 49.968588
12578  0  1 32.836440 24.282755 52.823609
12579  0  1 32.836397 24.282798 55.678690
12580  0  1 32.836350 27.138253  1.427560
12581  0  1 32.836386 27.138234  4.282663
12582  0  1 32.836470 27.138191  7.137714
12583  0  1 32.836631 27.138109  9.992661
12584  0  1 32.836944 27.137956 12.847399
12585  0  1 32.837610 27.137661 15.701686
12586  0  1 32.839241 27.137091 18.554800
12587  0  1 32.843998 27.136093 21.404115
12588  0  1 32.864535 27.137144 24.236033
12589  0  1 32.845040 27.113159 27.091882
12590  0  1 32.845040 27.113159 30.014360
12591  0  1 32.864535 27.137144 32.870208
12592  0  1 32.843998 27.136093 35.702126
12593  0  1 32.839241 27.137091 38.551441
12594  0  1 32.837610 27.137661 41.404556
12595  0  1 32.836944 27.137956 44.258842
12596  0  1 32.836631 27.138109 47.113580
12597  0  1 32.836470 27.138191 49.968527
12598  0  1 32.836386 27.138234 52.823579
12599  0  1 32.836350 27.138253 55.678681
12600  0  1 32.836310 29.993706  1.427559
12601  0  1 32.836339 29.993710  4.282660
12602  0  1 32.836406 29.993719  7.137709
12603  0  1 32.836532 29.993736  9.992650
12604  0  1 32.836771 29.993775 12.847379
12605  0  1 32.837265 29.993886 15.701659
12606  0  1 32.838448 29.994355 18.554875
12607  0  1 32.841862 29.996910 21.405219
12608  0  1 32.855519 30.010105 24.247192
12609  0  1 32.847513 30.003606 27.115918
12610  0  1 32.847513 30.003606 29.990323
12611  0  1 32.855519 30.010105 32.859049
12612  0  1 32.841862 29.996910 35.701022
12613  0  1 32.838448 29.994355 38.551367
12614  0  1 32.837265 29.993886 41.404582
12615  0  1 32.836771 29.993775 44.258862
12616  0  1 32.836532 29.993736 47.113591
12617  0  1 32.836406 29.993719 49.968532
12618  0  1 32.836339 29.993710 52.823581
12619  0  1 32.836310 29.993706 55.678682
12620  0  1 32.836290 32.849156  1.427550
12621  0  1 32.836317 32.849183  4.282629
12622  0  1 32.836376 32.849242  7.137648
12623  0  1 32.836489 32.849355  9.992540
12624  0  1 32.836702 32.849568 12.847189
12625  0  1 32.837114 32.849980 15.701362
12626  0  1 32.837860 32.850726 18.554727
12627  0  1 32.838376 32.851242 21.407930
12628  0  1 32.835214 32.848080 24.266320
12629  0  1 32.829963 32.842829 27.125755
12630  0  1 32.829963 32.842829 29.980486
12631  0  1 32.835214 32.848080 32.839921
12632  0  1 32.838376 32.851242 35.698312
12633  0  1 32.837860 32.850726 38.551514
12634  0  1 32.837114 32.849980 41.404880
12635  0  1 32.836702 32.849568 44.259052
12636  0  1 32.836489 32.849355 47.113701
12637  0  1 32.836376 32.849242 49.968594
12638  0  1 32.836317 32.849183 52.823612
12639  0  1 32.836290 32.849156 55.678692
12640  0  1 32.836293 35.704601  1.427535
12641  0  1 32.836322 35.704650  4.282581
12642  0  1 32.836388 35.704763  7.137557
12643  0  1 32.836517 35.704975  9.992392
12644  0  1 32.836765 35.705360 12.846977
12645  0  1 32.837275 35.706066 15.701146
12646  0  1 32.838381 35.707331 18.554765
12647  0  1 32.840463 35.709292 21.408348
12648  0  1 32.838850 35.707239 24.267050
12649  0  1 32.836237 35.704499 27.125300
12650  0  1 32.836237 35.704499 29.980942
12651  0  1 32.838850 35.707239 32.839191
12652  0  1 32.840463 35.709292 35.697893
12653  0  1 32.838381 35.707331 38.551476
12654  0  1 32.837275 35.706066 41.405095
12655  0  1 32.836765 35.705360 44.259264
12656  0  1 32.836517 35.704975 47.113849
12657  0  1 32.836388 35.704763 49.968685
12658  0  1 32.836322 35.704650 52.823660
12659  0  1 32.836293 35.704601 55.678707
12660  0  1 32.836311 38.560032  1.427519
12661  0  1 32.836345 38.560104  4.282532
12662  0  1 32.836424 38.560267  7.137473
12663  0  1 32.836573 38.560555  9.992284
12664  0  1 32.836842 38.561031 12.846902
12665  0  1 32.837308 38.561750 15.701325
12666  0  1 32.837967 38.562563 18.555862
12667  0  1 32.837926 38.562129 21.411953
12668  0  1 32.836541 38.560380 24.269269
12669  0  1 32.835331 38.559179 27.125471
12670  0  1 32.835331 38.559179 29.980770
12671  0  1 32.836541 38.560380 32.836973
12672  0  1 32.837926 38.562129 35.694288
12673  0  1 32.837967 38.562563 38.550380
12674  0  1 32.837308 38.561750 41.404916
12675  0  1 32.836842 38.561031 44.259339
12676  0  1 32.836573 38.560555 47.113958
12677  0  1 32.836424 38.560267 49.968768
12678  0  1 32.836345 38.560104 52.823709
12679  0  1 32.836311 38.560032 55.678722
12680  0  1 32.836332 41.415437  1.427509
12681  0  1 32.836371 41.415526  4.282505
12682  0  1 32.836455 41.415715  7.137444
12683  0  1 32.836600 41.416016  9.992302
12684  0  1 32.836816 41.416420 12.847102
12685  0  1 32.837065 41.416794 15.702018
12686  0  1 32.837125 41.416690 18.557499
12687  0  1 32.836711 41.415888 21.413640
12688  0  1 32.835869 41.414865 24.269856
12689  0  1 32.835248 41.414286 27.125477
12690  0  1 32.835248 41.414286 29.980765
12691  0  1 32.835869 41.414865 32.836385
12692  0  1 32.836711 41.415888 35.692602
12693  0  1 32.837125 41.416690 38.548742
12694  0  1 32.837065 41.416794 41.404223
12695  0  1 32.836816 41.416420 44.259139
12696  0  1 32.836600 41.416016 47.113940
12697  0  1 32.836455 41.415715 49.968797
12698  0  1 32.836371 41.415526 52.823736
12699  0  1 32.836332 41.415437 55.678733
12700  0  1 32.836346 44.270798  1.427511
12701  0  1 32.836383 44.270889  4.282520
12702  0  1 32.836459 44.271064  7.137505
12703  0  1 32.836569 44.271296  9.992485
12704  0  1 32.836687 44.271498 12.847547
12705  0  1 32.836736 44.271485 15.702862
12706  0  1 32.836606 44.271121 18.558509
12707  0  1 32.836252 44.270527 21.414317
12708  0  1 32.835774 44.269978 24.270021
12709  0  1 32.835445 44.269684 27.125463
12710  0  1 32.835445 44.269684 29.980778
12711  0  1 32.835774 44.269978 32.836220
12712  0  1 32.836252 44.270527 35.691924
12713  0  1 32.836606 44.271121 38.547733
12714  0  1 32.836736 44.271485 41.403380
12715  0  1 32.836687 44.271498 44.258694
12716  0  1 32.836569 44.271296 47.113756
12717  0  1 32.836459 44.271064 49.968736
12718  0  1 32.836383 44.270889 52.823721
12719  0  1 32.836346 44.270798 55.678731
12720  0  1 32.836346 47.126095  1.427528
12721  0  1 32.836376 47.126169  4.282583
12722  0  1 32.836432 47.126294  7.137653
12723  0  1 32.836495 47.126412  9.992780
12724  0  1 32.836533 47.126431 12.848037
12725  0  1 32.836496 47.126270 15.703471
12726  0  1 32.836349 47.125948 18.559031
12727  0  1 32.836102 47.125579 21.414600
12728  0  1 32.835826 47.125283 24.270086
12729  0  1 32.835644 47.125129 27.125459
12730  0  1 32.835644 47.125129 29.980782
12731  0  1 32.835826 47.125283 32.836155
12732  0  1 32.836102 47.125579 35.691641
12733  0  1 32.836349 47.125948 38.547210
12734  0  1 32.836496 47.126270 41.402770
12735  0  1 32.836533 47.126431 44.258204
12736  0  1 32.836495 47.126412 47.113461
12737  0  1 32.836432 47.126294 49.968588
12738  0  1 32.836376 47.126169 52.823658
12739  0  1 32.836346 47.126095 55.678714
12740  0  1 32.836335 49.981312  1.427556
12741  0  1 32.836355 49.981359  4.282677
12742  0  1 32.836387 49.981422  7.137839
12743  0  1 32.836414 49.981450  9.993076
12744  0  1 32.836411 49.981391 12.848413
12745  0  1 32.836355 49.981232 15.703834
12746  0  1 32.836237 49.981015 18.559290
12747  0  1 32.836072 49.980803 21.414728
12748  0  1 32.835907 49.980644 24.270118
12749  0  1 32.835802 49.980563 27.125460
12750  0  1 32.835802 49.980563 29.980781
12751  0  1 32.835907 49.980644 32.836123
12752  0  1 32.836072 49.980803 35.691514
12753  0  1 32.836237 49.981015 38.546951
12754  0  1 32.836355 49.981232 41.402407
12755  0  1 32.836411 49.981391 44.257829
12756  0  1 32.836414 49.981450 47.113165
12757  0  1 32.836387 49.981422 49.968402
12758  0  1 32.836355 49.981359 52.823564
12759  0  1 32.836335 49.981312 55.678686
12760  0  1 32.836318 52.836449  1.427584
12761  0  1 32.836328 52.836471  4.282768
12762  0  1 32.836343 52.836492  7.137997
12763  0  1 32.836349 52.836482  9.993289
12764  0  1 32.836333 52.836422 12.848639
12765  0  1 32.836285 52.836320 15.704022
12766  0  1 32.836200 52.836202 18.559409
12767  0  1 32.836093 52.836095 21.414780
12768  0  1 32.835990 52.836018 24.270130
12769  0  1 32.835927 52.835979 27.125460
12770  0  1 32.835927 52.835979 29.980782
12771  0  1 32.835990 52.836018 32.836112
12772  0  1 32.836093 52.836095 35.691461
12773  0  1 32.836200 52.836202 38.546833
12774  0  1 32.836285 52.836320 41.402220
12775  0  1 32.836333 52.836422 44.257603
12776  0  1 32.836349 52.836482 47.112953
12777  0  1 32.836343 52.836492 49.968245
12778  0  1 32.836328 52.836471 52.823474
12779  0  1 32.836318 52.836449 55.678657
12780  0  1 32.836302 55.691529  1.427600
12781  0  1 32.836307 55.691533  4.282816
12782  0  1 32.836312 55.691535  7.138075
12783  0  1 32.836311 55.691527  9.993383
12784  0  1 32.836297 55.691505 12.848727
12785  0  1 32.836263 55.691473 15.704084
12786  0  1 32.836208 55.691439 18.559438
12787  0  1 32.836139 55.691410 21.414784
12788  0  1 32.836074 55.691391 24.270122
12789  0  1 32.836034 55.691381 27.125455
12790  0  1 32.836034 55.691381 29.980786
12791  0  1 32.836074 55.691391 32.836119
12792  0  1 32.836139 55.691410 35.691457
12793  0  1 32.836208 55.691439 38.546803
12794  0  1 32.836263 55.691473 41.402158
12795  0  1 32.836297 55.691505 44.257515
12796  0  1 32.836311 55.691527 47.112858
12797  0  1 32.836312 55.691535 49.968166
12798  0  1 32.836307 55.691533 52.823425
12799  0  1 32.836302 55.691529 55.678641
12800  0  1 35.691717  1.440290  1.427594
12801  0  1 35.691725  1.440278  4.282797
12802  0  1 35.691738  1.440266  7.138039
12803  0  1 35.691746  1.440266  9.993327
12804  0  1 35.691738  1.440285 12.848654
12805  0  1 35.691704  1.440320 15.704004
12806  0  1 35.691641  1.440363 18.559365
12807  0  1 35.691561  1.440404 21.414730
12808  0  1 35.691487  1.440435 24.270090
12809  0  1 35.691442  1.440452 27.125445
12810  0  1 35.691442  1.440452 29.980796
12811  0  1 35.691487  1.440435 32.836151
12812  0  1 35.691561  1.440404 35.691511
12813  0  1 35.691641  1.440363 38.546876
12814  0  1 35.691704  1.440320 41.402238
12815  0  1 35.691738  1.440285 44.257588
12816  0  1 35.691746  1.440266 47.112914
12817  0  1 35.691738  1.440266 49.968202
12818  0  1 35.691725  1.440278 52.823444
12819  0  1 35.691717  1.440290 55.678647
12820  0  1 35.691747  4.295369  1.427566
12821  0  1 35.691760  4.295334  4.282712
12822  0  1 35.691783  4.295291  7.137899
12823  0  1 35.691805  4.295276  9.993148
12824  0  1 35.691816  4.295315 12.848461
12825  0  1 35.691800  4.295405 15.703824
12826  0  1 35.691754  4.295521 18.559214
12827  0  1 35.691684  4.295632 21.414617
12828  0  1 35.691613  4.295715 24.270021
12829  0  1 35.691568  4.295759 27.125421
12830  0  1 35.691568  4.295759 29.980820
12831  0  1 35.691613  4.295715 32.836221
12832  0  1 35.691684  4.295632 35.691625
12833  0  1 35.691754  4.295521 38.547027
12834  0  1 35.691800  4.295405 41.402418
12835  0  1 35.691816  4.295315 44.257780
12836  0  1 35.691805  4.295276 47.113093
12837  0  1 35.691783  4.295291 49.968342
12838  0  1 35.691760  4.295334 52.823530
12839  0  1 35.691747  4.295369 55.678675
12840  0  1 35.691799  7.150507  1.427529
12841  0  1 35.691822  7.150438  4.282593
12842  0  1 35.691865  7.150332  7.137687
12843  0  1 35.691916  7.150250  9.992851
12844  0  1 35.691959  7.150257 12.848120
12845  0  1 35.691975  7.150373 15.703496
12846  0  1 35.691950  7.150564 18.558942
12847  0  1 35.691883  7.150764 21.414420
12848  0  1 35.691797  7.150918 24.269905
12849  0  1 35.691738  7.151000 27.125384
12850  0  1 35.691738  7.151000 29.980858
12851  0  1 35.691797  7.150918 32.836336
12852  0  1 35.691883  7.150764 35.691821
12853  0  1 35.691950  7.150564 38.547299
12854  0  1 35.691975  7.150373 41.402746
12855  0  1 35.691959  7.150257 44.258121
12856  0  1 35.691916  7.150250 47.113390
12857  0  1 35.691865  7.150332 49.968554
12858  0  1 35.691822  7.150438 52.823649
12859  0  1 35.691799  7.150507 55.678713
12860  0  1 35.691863 10.005726  1.427496
12861  0  1 35.691899 10.005621  4.282482
12862  0  1 35.691971 10.005434  7.137464
12863  0  1 35.692071 10.005221  9.992479
12864  0  1 35.692180 10.005091 12.847616
12865  0  1 35.692265 10.005148 15.702951
12866  0  1 35.692289 10.005393 18.558466
12867  0  1 35.692226 10.005711 21.414077
12868  0  1 35.692096 10.005976 24.269713
12869  0  1 35.691996 10.006117 27.125323
12870  0  1 35.691996 10.006117 29.980918
12871  0  1 35.692096 10.005976 32.836529
12872  0  1 35.692226 10.005711 35.692165
12873  0  1 35.692289 10.005393 38.547775
12874  0  1 35.692265 10.005148 41.403290
12875  0  1 35.692180 10.005091 44.258625
12876  0  1 35.692071 10.005221 47.113762
12877  0  1 35.691971 10.005434 49.968778
12878  0  1 35.691899 10.005621 52.823759
12879  0  1 35.691863 10.005726 55.678745
12880  0  1 35.691920 12.861027  1.427480
12881  0  1 35.691972 12.860902  4.282419
12882  0  1 35.692080 12.860650  7.137304
12883  0  1 35.692250 12.860283  9.992135
12884  0  1 35.692477 12.859882 12.846995
12885  0  1 35.692721 12.859667 15.702099
12886  0  1 35.692891 12.859835 18.557610
12887  0  1 35.692872 12.860292 21.413436
12888  0  1 35.692634 12.860746 24.269381
12889  0  1 35.692437 12.860988 27.125228
12890  0  1 35.692437 12.860988 29.981013
12891  0  1 35.692634 12.860746 32.836860
12892  0  1 35.692872 12.860292 35.692805
12893  0  1 35.692891 12.859835 38.548632
12894  0  1 35.692721 12.859667 41.404142
12895  0  1 35.692477 12.859882 44.259247
12896  0  1 35.692250 12.860283 47.114106
12897  0  1 35.692080 12.860650 49.968937
12898  0  1 35.691972 12.860902 52.823822
12899  0  1 35.691920 12.861027 55.678761
12900  0  1 35.691953 15.716401  1.427483
12901  0  1 35.692017 15.716278  4.282417
12902  0  1 35.692160 15.716008  7.137260
12903  0  1 35.692410 15.715548  9.991951
12904  0  1 35.692806 15.714857 12.846464
12905  0  1 35.693369 15.714030 15.700957
12906  0  1 35.693969 15.713639 18.556047
12907  0  1 35.694219 15.714089 21.412112
12908  0  1 35.693702 15.714925 24.268799
12909  0  1 35.693283 15.715355 27.125086
12910  0  1 35.693283 15.715355 29.981156
12911  0  1 35.693702 15.714925 32.837443
12912  0  1 35.694219 15.714089 35.694129
12913  0  1 35.693969 15.713639 38.550195
12914  0  1 35.693369 15.714030 41.405284
12915  0  1 35.692806 15.714857 44.259777
12916  0  1 35.692410 15.715548 47.114291
12917  0  1 35.692160 15.716008 49.968981
12918  0  1 35.692017 15.716278 52.823824
12919  0  1 35.691953 15.716401 55.678759
12920  0  1 35.691947 18.571828  1.427498
12921  0  1 35.692021 18.571725  4.282461
12922  0  1 35.692189 18.571488  7.137321
12923  0  1 35.692502 18.571046  9.991979
12924  0  1 35.693068 18.570251 12.846285
12925  0  1 35.694076 18.568868 15.700065
12926  0  1 35.695721 18.566842 18.553520
12927  0  1 35.697266 18.566153 21.409013
12928  0  1 35.695905 18.567936 24.267802
12929  0  1 35.695021 18.568750 27.124921
12930  0  1 35.695021 18.568750 29.981320
12931  0  1 35.695905 18.567936 32.838440
12932  0  1 35.697266 18.566153 35.697228
12933  0  1 35.695721 18.566842 38.552722
12934  0  1 35.694076 18.568868 41.406176
12935  0  1 35.693068 18.570251 44.259957
12936  0  1 35.692502 18.571046 47.114262
12937  0  1 35.692189 18.571488 49.968920
12938  0  1 35.692021 18.571725 52.823780
12939  0  1 35.691947 18.571828 55.678743
12940  0  1 35.691908 21.427288  1.427517
12941  0  1 35.691983 21.427213  4.282523
12942  0  1 35.692157 21.427039  7.137434
12943  0  1 35.692494 21.426701  9.992148
12944  0  1 35.693148 21.426047 12.846468
12945  0  1 35.694493 21.424703 15.699984
12946  0  1 35.697457 21.421738 18.551892
12947  0  1 35.703843 21.415353 21.401709
12948  0  1 35.700052 21.419143 24.266060
12949  0  1 35.698287 21.420908 27.124831
12950  0  1 35.698287 21.420908 29.981410
12951  0  1 35.700052 21.419143 32.840182
12952  0  1 35.703843 21.415353 35.704532
12953  0  1 35.697457 21.421738 38.554349
12954  0  1 35.694493 21.424703 41.406258
12955  0  1 35.693148 21.426047 44.259773
12956  0  1 35.692494 21.426701 47.114093
12957  0  1 35.692157 21.427039 49.968807
12958  0  1 35.691983 21.427213 52.823719
12959  0  1 35.691908 21.427288 55.678724
12960  0  1 35.691848 24.282760  1.427533
12961  0  1 35.691918 24.282715  4.282575
12962  0  1 35.692080 24.282611  7.137537
12963  0  1 35.692395 24.282412  9.992328
12964  0  1 35.693009 24.282038 12.846773
12965  0  1 35.694284 24.281295 15.700473
12966  0  1 35.697122 24.279703 18.552538
12967  0  1 35.703199 24.276140 21.401788
12968  0  1 35.702796 24.271009 24.258318
12969  0  1 35.695138 24.278870 27.124999
12970  0  1 35.695138 24.278870 29.981242
12971  0  1 35.702796 24.271009 32.847923
12972  0  1 35.703199 24.276140 35.704454
12973  0  1 35.697122 24.279703 38.553703
12974  0  1 35.694284 24.281295 41.405768
12975  0  1 35.693009 24.282038 44.259469
12976  0  1 35.692395 24.282412 47.113913
12977  0  1 35.692080 24.282611 49.968705
12978  0  1 35.691918 24.282715 52.823666
12979  0  1 35.691848 24.282760 55.678708
12980  0  1 35.691790 27.138231  1.427542
12981  0  1 35.691851 27.138214  4.282603
12982  0  1 35.691993 27.138175  7.137593
12983  0  1 35.692265 27.138107  9.992434
12984  0  1 35.692787 27.137999 12.846975
12985  0  1 35.693848 27.137850 15.700894
12986  0  1 35.696130 27.137718 18.553501
12987  0  1 35.700749 27.137760 21.403979
12988  0  1 35.698462 27.135372 24.260778
12989  0  1 35.691238 27.132284 27.119802
12990  0  1 35.691238 27.132284 29.986439
12991  0  1 35.698462 27.135372 32.845463
12992  0  1 35.700749 27.137760 35.702262
12993  0  1 35.696130 27.137718 38.552740
12994  0  1 35.693848 27.137850 41.405348
12995  0  1 35.692787 27.137999 44.259266
12996  0  1 35.692265 27.138106 47.113808
12997  0  1 35.691993 27.138175 49.968648
12998  0  1 35.691851 27.138214 52.823638
12999  0  1 35.691790 27.138231 55.678699
13000  0  1 35.691749 29.993698  1.427542
13001  0  1 35.691802 29.993704  4.282603
13002  0  1 35.691926 29.993721  7.137596
13003  0  1 35.692160 29.993761  9.992446
13004  0  1 35.692601 29.993859 12.847024
13005  0  1 35.693470 29.994127 15.701078
13006  0  1 35.695250 29.994906 18.554157
13007  0  1 35.698749 29.996990 21.405935
13008  0  1 35.696591 29.996040 24.264034
13009  0  1 35.690740 29.990960 27.124792
13010  0  1 35.690740 29.990960 29.981449
13011  0  1 35.696591 29.996040 32.842207
13012  0  1 35.698749 29.996990 35.700306
13013  0  1 35.695250 29.994906 38.552084
13014  0  1 35.693470 29.994127 41.405164
13015  0  1 35.692601 29.993859 44.259217
13016  0  1 35.692160 29.993761 47.113795
13017  0  1 35.691926 29.993721 49.968646
13018  0  1 35.691802 29.993704 52.823638
13019  0  1 35.691749 29.993698 55.678700
13020  0  1 35.691735 32.849159  1.427535
13021  0  1 35.691784 32.849188  4.282581
13022  0  1 35.691898 32.849254  7.137557
13023  0  1 35.692109 32.849383  9.992392
13024  0  1 35.692494 32.849631 12.846977
13025  0  1 35.693200 32.850141 15.701146
13026  0  1 35.694465 32.851247 18.554765
13027  0  1 35.696426 32.853329 21.408348
13028  0  1 35.694373 32.851716 24.267050
13029  0  1 35.691633 32.849103 27.125300
13030  0  1 35.691633 32.849103 29.980942
13031  0  1 35.694373 32.851716 32.839191
13032  0  1 35.696426 32.853329 35.697893
13033  0  1 35.694465 32.851247 38.551476
13034  0  1 35.693200 32.850141 41.405095
13035  0  1 35.692494 32.849631 44.259264
13036  0  1 35.692109 32.849383 47.113849
13037  0  1 35.691898 32.849254 49.968685
13038  0  1 35.691784 32.849188 52.823660
13039  0  1 35.691735 32.849159 55.678707
13040  0  1 35.691747 35.704613  1.427524
13041  0  1 35.691797 35.704663  4.282547
13042  0  1 35.691908 35.704774  7.137500
13043  0  1 35.692110 35.704976  9.992322
13044  0  1 35.692453 35.705319 12.846944
13045  0  1 35.692977 35.705843 15.701352
13046  0  1 35.693509 35.706375 18.555913
13047  0  1 35.693198 35.706064 21.411884
13048  0  1 35.691496 35.704362 24.269230
13049  0  1 35.690193 35.703059 27.125464
13050  0  1 35.690193 35.703059 29.980778
13051  0  1 35.691496 35.704362 32.837011
13052  0  1 35.693198 35.706063 35.694357
13053  0  1 35.693509 35.706375 38.550329
13054  0  1 35.692977 35.705843 41.404889
13055  0  1 35.692453 35.705319 44.259298
13056  0  1 35.692110 35.704976 47.113919
13057  0  1 35.691908 35.704774 49.968741
13058  0  1 35.691797 35.704663 52.823694
13059  0  1 35.691747 35.704613 55.678718
13060  0  1 35.691775 38.560050  1.427513
13061  0  1 35.691826 38.560118  4.282517
13062  0  1 35.691939 38.560267  7.137459
13063  0  1 35.692137 38.560519  9.992299
13064  0  1 35.692451 38.560901 12.847023
13065  0  1 35.692896 38.561389 15.701727
13066  0  1 35.693309 38.561750 18.556807
13067  0  1 35.692852 38.561135 21.413144
13068  0  1 35.691835 38.560037 24.269728
13069  0  1 35.691190 38.559403 27.125466
13070  0  1 35.691190 38.559403 29.980775
13071  0  1 35.691835 38.560037 32.836513
13072  0  1 35.692852 38.561135 35.693097
13073  0  1 35.693309 38.561750 38.549434
13074  0  1 35.692896 38.561389 41.404514
13075  0  1 35.692451 38.560901 44.259218
13076  0  1 35.692137 38.560519 47.113943
13077  0  1 35.691939 38.560267 49.968782
13078  0  1 35.691826 38.560118 52.823724
13079  0  1 35.691775 38.560050 55.678728
13080  0  1 35.691799 41.415451  1.427509
13081  0  1 35.691850 41.415531  4.282510
13082  0  1 35.691959 41.415697  7.137468
13083  0  1 35.692133 41.415948  9.992378
13084  0  1 35.692369 41.416255 12.847290
13085  0  1 35.692597 41.416491 15.702379
13086  0  1 35.692571 41.416329 18.557989
13087  0  1 35.692092 41.415692 21.414079
13088  0  1 35.691465 41.415031 24.270012
13089  0  1 35.691082 41.414682 27.125486
13090  0  1 35.691082 41.414682 29.980755
13091  0  1 35.691465 41.415031 32.836229
13092  0  1 35.692092 41.415692 35.692163
13093  0  1 35.692571 41.416329 38.548253
13094  0  1 35.692597 41.416491 41.403862
13095  0  1 35.692369 41.416255 44.258951
13096  0  1 35.692133 41.415948 47.113863
13097  0  1 35.691959 41.415697 49.968773
13098  0  1 35.691850 41.415531 52.823732
13099  0  1 35.691799 41.415451 55.678732
13100  0  1 35.691804 44.270797  1.427516
13101  0  1 35.691851 44.270877  4.282539
13102  0  1 35.691943 44.271026  7.137552
13103  0  1 35.692070 44.271214  9.992581
13104  0  1 35.692193 44.271359 12.847711
13105  0  1 35.692220 44.271315 15.703085
13106  0  1 35.692045 44.270995 18.558748
13107  0  1 35.691668 44.270521 21.414517
13108  0  1 35.691268 44.270123 24.270119
13109  0  1 35.691027 44.269920 27.125487
13110  0  1 35.691027 44.269920 29.980755
13111  0  1 35.691268 44.270123 32.836122
13112  0  1 35.691668 44.270521 35.691724
13113  0  1 35.692045 44.270995 38.547494
13114  0  1 35.692220 44.271315 41.403156
13115  0  1 35.692193 44.271359 44.258530
13116  0  1 35.692070 44.271214 47.113661
13117  0  1 35.691943 44.271026 49.968689
13118  0  1 35.691851 44.270877 52.823702
13119  0  1 35.691804 44.270797 55.678726
13120  0  1 35.691788 47.126074  1.427535
13121  0  1 35.691825 47.126138  4.282609
13122  0  1 35.691891 47.126243  7.137703
13123  0  1 35.691963 47.126336  9.992859
13124  0  1 35.691997 47.126338 12.848143
13125  0  1 35.691939 47.126187 15.703591
13126  0  1 35.691757 47.125906 18.559151
13127  0  1 35.691488 47.125598 21.414706
13128  0  1 35.691230 47.125363 24.270153
13129  0  1 35.691076 47.125244 27.125481
13130  0  1 35.691076 47.125244 29.980760
13131  0  1 35.691230 47.125363 32.836088
13132  0  1 35.691488 47.125598 35.691535
13133  0  1 35.691757 47.125906 38.547090
13134  0  1 35.691939 47.126187 41.402650
13135  0  1 35.691997 47.126338 44.258098
13136  0  1 35.691963 47.126336 47.113382
13137  0  1 35.691891 47.126243 49.968539
13138  0  1 35.691825 47.126138 52.823633
13139  0  1 35.691788 47.126074 55.678706
13140  0  1 35.691759 49.981272  1.427563
13141  0  1 35.691784 49.981313  4.282701
13142  0  1 35.691823 49.981367  7.137877
13143  0  1 35.691854 49.981386  9.993126
13144  0  1 35.691845 49.981328 12.848468
13145  0  1 35.691769 49.981184 15.703891
13146  0  1 35.691621 49.980993 18.559350
13147  0  1 35.691432 49.980809 21.414785
13148  0  1 35.691260 49.980676 24.270160
13149  0  1 35.691159 49.980608 27.125475
13150  0  1 35.691159 49.980608 29.980766
13151  0  1 35.691260 49.980676 32.836081
13152  0  1 35.691432 49.980809 35.691456
13153  0  1 35.691621 49.980993 38.546892
13154  0  1 35.691769 49.981184 41.402350
13155  0  1 35.691845 49.981328 44.257774
13156  0  1 35.691854 49.981386 47.113116
13157  0  1 35.691823 49.981367 49.968364
13158  0  1 35.691784 49.981313 52.823540
13159  0  1 35.691759 49.981272 55.678678
13160  0  1 35.691730 52.836399  1.427590
13161  0  1 35.691744 52.836417  4.282783
13162  0  1 35.691764 52.836435  7.138018
13163  0  1 35.691774 52.836424  9.993310
13164  0  1 35.691752 52.836370 12.848656
13165  0  1 35.691685 52.836279 15.704039
13166  0  1 35.691573 52.836174 18.559431
13167  0  1 35.691438 52.836081 21.414807
13168  0  1 35.691318 52.836015 24.270153
13169  0  1 35.691248 52.835982 27.125469
13170  0  1 35.691248 52.835982 29.980773
13171  0  1 35.691318 52.836015 32.836089
13172  0  1 35.691438 52.836081 35.691434
13173  0  1 35.691573 52.836174 38.546810
13174  0  1 35.691685 52.836279 41.402202
13175  0  1 35.691752 52.836370 44.257585
13176  0  1 35.691774 52.836424 47.112932
13177  0  1 35.691764 52.836435 49.968223
13178  0  1 35.691744 52.836417 52.823458
13179  0  1 35.691730 52.836399 55.678651
13180  0  1 35.691712 55.691473  1.427603
13181  0  1 35.691721 55.691476  4.282822
13182  0  1 35.691733 55.691477  7.138079
13183  0  1 35.691736 55.691468  9.993381
13184  0  1 35.691718 55.691448 12.848717
13185  0  1 35.691667 55.691421 15.704072
13186  0  1 35.691583 55.691393 18.559433
13187  0  1 35.691482 55.691370 21.414789
13188  0  1 35.691393 55.691354 24.270131
13189  0  1 35.691340 55.691347 27.125459
13190  0  1 35.691340 55.691347 29.980782
13191  0  1 35.691393 55.691354 32.836110
13192  0  1 35.691482 55.691370 35.691452
13193  0  1 35.691583 55.691393 38.546808
13194  0  1 35.691667 55.691421 41.402169
13195  0  1 35.691718 55.691448 44.257525
13196  0  1 35.691736 55.691468 47.112861
13197  0  1 35.691733 55.691477 49.968162
13198  0  1 35.691721 55.691476 52.823420
13199  0  1 35.691712 55.691473 55.678639
13200  0  1 38.547124  1.440241  1.427594
13201  0  1 38.547145  1.440227  4.282792
13202  0  1 38.547178  1.440210  7.138022
13203  0  1 38.547205  1.440204  9.993292
13204  0  1 38.547199  1.440217 12.848605
13205  0  1 38.547142  1.440247 15.703960
13206  0  1 38.547042  1.440286 18.559343
13207  0  1 38.546927  1.440324 21.414728
13208  0  1 38.546831  1.440353 24.270097
13209  0  1 38.546777  1.440369 27.125448
13210  0  1 38.546777  1.440369 29.980793
13211  0  1 38.546831  1.440353 32.836145
13212  0  1 38.546927  1.440324 35.691514
13213  0  1 38.547042  1.440286 38.546899
13214  0  1 38.547142  1.440247 41.402281
13215  0  1 38.547199  1.440217 44.257636
13216  0  1 38.547205  1.440204 47.112950
13217  0  1 38.547178  1.440210 49.968220
13218  0  1 38.547145  1.440227 52.823449
13219  0  1 38.547124  1.440241 55.678648
13220  0  1 38.547183  4.295314  1.427563
13221  0  1 38.547212  4.295275  4.282699
13222  0  1 38.547260  4.295224  7.137871
13223  0  1 38.547307  4.295197  9.993100
13224  0  1 38.547324  4.295221 12.848400
13225  0  1 38.547287  4.295294 15.703767
13226  0  1 38.547199  4.295394 18.559182
13227  0  1 38.547087  4.295491 21.414610
13228  0  1 38.546987  4.295565 24.270026
13229  0  1 38.546930  4.295603 27.125425
13230  0  1 38.546930  4.295603 29.980816
13231  0  1 38.546987  4.295565 32.836215
13232  0  1 38.547087  4.295491 35.691632
13233  0  1 38.547199  4.295394 38.547059
13234  0  1 38.547287  4.295294 41.402474
13235  0  1 38.547324  4.295221 44.257842
13236  0  1 38.547307  4.295197 47.113141
13237  0  1 38.547260  4.295223 49.968370
13238  0  1 38.547212  4.295275 52.823542
13239  0  1 38.547183  4.295314 55.678679
13240  0  1 38.547274  7.150439  1.427523
13241  0  1 38.547316  7.150365  4.282574
13242  0  1 38.547391  7.150251  7.137653
13243  0  1 38.547477  7.150156  9.992798
13244  0  1 38.547538  7.150139 12.848054
13245  0  1 38.547540  7.150224 15.703434
13246  0  1 38.547470  7.150378 18.558907
13247  0  1 38.547350  7.150542 21.414417
13248  0  1 38.547232  7.150669 24.269916
13249  0  1 38.547160  7.150736 27.125390
13250  0  1 38.547160  7.150736 29.980852
13251  0  1 38.547232  7.150669 32.836326
13252  0  1 38.547350  7.150542 35.691824
13253  0  1 38.547470  7.150378 38.547334
13254  0  1 38.547540  7.150224 41.402807
13255  0  1 38.547538  7.150139 44.258187
13256  0  1 38.547477  7.150156 47.113443
13257  0  1 38.547391  7.150251 49.968589
13258  0  1 38.547316  7.150365 52.823667
13259  0  1 38.547274  7.150439 55.678718
13260  0  1 38.547373 10.005639  1.427489
13261  0  1 38.547433 10.005532  4.282458
13262  0  1 38.547547 10.005339  7.137424
13263  0  1 38.547701 10.005117  9.992427
13264  0  1 38.547854 10.004965 12.847557
13265  0  1 38.547946 10.004977 15.702900
13266  0  1 38.547925 10.005151 18.558447
13267  0  1 38.547791 10.005392 21.414102
13268  0  1 38.547632 10.005588 24.269745
13269  0  1 38.547531 10.005691 27.125337
13270  0  1 38.547531 10.005691 29.980905
13271  0  1 38.547632 10.005588 32.836497
13272  0  1 38.547791 10.005392 35.692139
13273  0  1 38.547925 10.005151 38.547794
13274  0  1 38.547946 10.004977 41.403341
13275  0  1 38.547854 10.004965 44.258684
13276  0  1 38.547701 10.005117 47.113815
13277  0  1 38.547547 10.005339 49.968817
13278  0  1 38.547433 10.005532 52.823783
13279  0  1 38.547373 10.005639 55.678753
13280  0  1 38.547448 12.860927  1.427470
13281  0  1 38.547526 12.860801  4.282388
13282  0  1 38.547689 12.860548  7.137257
13283  0  1 38.547940 12.860181  9.992082
13284  0  1 38.548260 12.859774 12.846954
13285  0  1 38.548564 12.859521 15.702092
13286  0  1 38.548696 12.859592 18.557667
13287  0  1 38.548544 12.859908 21.413579
13288  0  1 38.548309 12.860198 24.269478
13289  0  1 38.548157 12.860351 27.125258
13290  0  1 38.548157 12.860351 29.980983
13291  0  1 38.548309 12.860198 32.836764
13292  0  1 38.548544 12.859908 35.692663
13293  0  1 38.548696 12.859592 38.548574
13294  0  1 38.548564 12.859521 41.404149
13295  0  1 38.548260 12.859774 44.259288
13296  0  1 38.547940 12.860181 47.114160
13297  0  1 38.547689 12.860548 49.968984
13298  0  1 38.547526 12.860801 52.823853
13299  0  1 38.547448 12.860927 55.678772
13300  0  1 38.547470 15.716307  1.427469
13301  0  1 38.547565 15.716184  4.282377
13302  0  1 38.547772 15.715915  7.137197
13303  0  1 38.548128 15.715463  9.991880
13304  0  1 38.548675 15.714793 12.846427
13305  0  1 38.549394 15.713998 15.701032
13306  0  1 38.549976 15.713586 18.556333
13307  0  1 38.549811 15.713934 21.412696
13308  0  1 38.549435 15.714364 24.269069
13309  0  1 38.549201 15.714589 27.125147
13310  0  1 38.549201 15.714589 29.981094
13311  0  1 38.549435 15.714364 32.837172
13312  0  1 38.549811 15.713934 35.693545
13313  0  1 38.549976 15.713586 38.549908
13314  0  1 38.549394 15.713998 41.405209
13315  0  1 38.548675 15.714793 44.259815
13316  0  1 38.548128 15.715463 47.114362
13317  0  1 38.547772 15.715915 49.969045
13318  0  1 38.547565 15.716184 52.823865
13319  0  1 38.547470 15.716307 55.678772
13320  0  1 38.547436 18.571759  1.427481
13321  0  1 38.547540 18.571656  4.282410
13322  0  1 38.547774 18.571421  7.137235
13323  0  1 38.548203 18.570993  9.991866
13324  0  1 38.548945 18.570250 12.846198
13325  0  1 38.550164 18.569031 15.700190
13326  0  1 38.551780 18.567416 18.554328
13327  0  1 38.551663 18.567532 21.411230
13328  0  1 38.550965 18.568230 24.268481
13329  0  1 38.550587 18.568608 27.125010
13330  0  1 38.550587 18.568608 29.981231
13331  0  1 38.550965 18.568230 32.837760
13332  0  1 38.551663 18.567532 35.695011
13333  0  1 38.551780 18.567416 38.551913
13334  0  1 38.550164 18.569031 41.406051
13335  0  1 38.548945 18.570250 44.260043
13336  0  1 38.548203 18.570993 47.114375
13337  0  1 38.547774 18.571421 49.969007
13338  0  1 38.547540 18.571656 52.823831
13339  0  1 38.547436 18.571759 55.678760
13340  0  1 38.547367 21.427248  1.427498
13341  0  1 38.547471 21.427175  4.282461
13342  0  1 38.547707 21.427007  7.137321
13343  0  1 38.548150 21.426693  9.991979
13344  0  1 38.548945 21.426128 12.846285
13345  0  1 38.550328 21.425119 15.700065
13346  0  1 38.552353 21.423475 18.553520
13347  0  1 38.553043 21.421930 21.409013
13348  0  1 38.551259 21.423290 24.267802
13349  0  1 38.550446 21.424174 27.124921
13350  0  1 38.550446 21.424174 29.981320
13351  0  1 38.551259 21.423290 32.838440
13352  0  1 38.553043 21.421930 35.697228
13353  0  1 38.552353 21.423475 38.552722
13354  0  1 38.550328 21.425119 41.406176
13355  0  1 38.548945 21.426128 44.259957
13356  0  1 38.548150 21.426693 47.114262
13357  0  1 38.547707 21.427007 49.968920
13358  0  1 38.547471 21.427175 52.823780
13359  0  1 38.547367 21.427248 55.678743
13360  0  1 38.547289 24.282743  1.427512
13361  0  1 38.547386 24.282702  4.282506
13362  0  1 38.547606 24.282609  7.137406
13363  0  1 38.548019 24.282441  9.992118
13364  0  1 38.548761 24.282150 12.846494
13365  0  1 38.550045 24.281649 15.700351
13366  0  1 38.551868 24.280813 18.553827
13367  0  1 38.552128 24.279647 21.409019
13368  0  1 38.550148 24.279067 24.266266
13369  0  1 38.548243 24.280807 27.124613
13370  0  1 38.548243 24.280806 29.981629
13371  0  1 38.550148 24.279067 32.839976
13372  0  1 38.552128 24.279647 35.697222
13373  0  1 38.551868 24.280813 38.552414
13374  0  1 38.550045 24.281649 41.405890
13375  0  1 38.548761 24.282150 44.259748
13376  0  1 38.548019 24.282441 47.114123
13377  0  1 38.547606 24.282609 49.968835
13378  0  1 38.547386 24.282702 52.823735
13379  0  1 38.547289 24.282743 55.678729
13380  0  1 38.547222 27.138230  1.427520
13381  0  1 38.547309 27.138218  4.282534
13382  0  1 38.547507 27.138195  7.137461
13383  0  1 38.547875 27.138160  9.992219
13384  0  1 38.548527 27.138119 12.846681
13385  0  1 38.549630 27.138088 15.700705
13386  0  1 38.551108 27.138045 18.554470
13387  0  1 38.550882 27.137608 21.409935
13388  0  1 38.548381 27.136657 24.266935
13389  0  1 38.545989 27.135947 27.123964
13390  0  1 38.545989 27.135947 29.982277
13391  0  1 38.548381 27.136657 32.839306
13392  0  1 38.550882 27.137608 35.696307
13393  0  1 38.551108 27.138045 38.551771
13394  0  1 38.549630 27.138088 41.405536
13395  0  1 38.548527 27.138119 44.259560
13396  0  1 38.547875 27.138160 47.114022
13397  0  1 38.547507 27.138195 49.968780
13398  0  1 38.547309 27.138218 52.823708
13399  0  1 38.547222 27.138230 55.678721
13400  0  1 38.547178 29.993707  1.427522
13401  0  1 38.547257 29.993721  4.282541
13402  0  1 38.547435 29.993754  7.137480
13403  0  1 38.547761 29.993825  9.992268
13404  0  1 38.548323 29.993973 12.846808
13405  0  1 38.549237 29.994270 15.701017
13406  0  1 38.550391 29.994741 18.555135
13407  0  1 38.550002 29.994716 21.410914
13408  0  1 38.547668 29.993508 24.268220
13409  0  1 38.545375 29.991472 27.125272
13410  0  1 38.545375 29.991472 29.980969
13411  0  1 38.547668 29.993508 32.838021
13412  0  1 38.550002 29.994716 35.695328
13413  0  1 38.550391 29.994741 38.551106
13414  0  1 38.549237 29.994270 41.405224
13415  0  1 38.548323 29.993973 44.259434
13416  0  1 38.547761 29.993825 47.113973
13417  0  1 38.547435 29.993754 49.968761
13418  0  1 38.547257 29.993721 52.823700
13419  0  1 38.547178 29.993707 55.678719
13420  0  1 38.547166 32.849177  1.427519
13421  0  1 38.547238 32.849211  4.282532
13422  0  1 38.547401 32.849290  7.137473
13423  0  1 38.547689 32.849439  9.992284
13424  0  1 38.548165 32.849708 12.846902
13425  0  1 38.548884 32.850174 15.701325
13426  0  1 38.549697 32.850833 18.555862
13427  0  1 38.549263 32.850792 21.411953
13428  0  1 38.547514 32.849407 24.269269
13429  0  1 38.546313 32.848197 27.125471
13430  0  1 38.546313 32.848197 29.980770
13431  0  1 38.547514 32.849407 32.836973
13432  0  1 38.549263 32.850792 35.694288
13433  0  1 38.549697 32.850833 38.550380
13434  0  1 38.548884 32.850174 41.404916
13435  0  1 38.548165 32.849708 44.259339
13436  0  1 38.547689 32.849439 47.113958
13437  0  1 38.547401 32.849290 49.968768
13438  0  1 38.547238 32.849211 52.823709
13439  0  1 38.547166 32.849177 55.678722
13440  0  1 38.547184 35.704641  1.427513
13441  0  1 38.547252 35.704692  4.282517
13442  0  1 38.547401 35.704805  7.137459
13443  0  1 38.547653 35.705003  9.992299
13444  0  1 38.548035 35.705317 12.847023
13445  0  1 38.548523 35.705762 15.701727
13446  0  1 38.548884 35.706175 18.556807
13447  0  1 38.548269 35.705718 21.413144
13448  0  1 38.547171 35.704701 24.269728
13449  0  1 38.546537 35.704056 27.125466
13450  0  1 38.546537 35.704056 29.980775
13451  0  1 38.547171 35.704701 32.836513
13452  0  1 38.548269 35.705718 35.693097
13453  0  1 38.548884 35.706175 38.549434
13454  0  1 38.548523 35.705762 41.404514
13455  0  1 38.548035 35.705317 44.259218
13456  0  1 38.547653 35.705003 47.113943
13457  0  1 38.547401 35.704805 49.968782
13458  0  1 38.547252 35.704692 52.823724
13459  0  1 38.547184 35.704641 55.678728
13460  0  1 38.547223 38.560088  1.427509
13461  0  1 38.547286 38.560152  4.282508
13462  0  1 38.547420 38.560286  7.137461
13463  0  1 38.547633 38.560499  9.992355
13464  0  1 38.547910 38.560776 12.847231
13465  0  1 38.548152 38.561018 15.702271
13466  0  1 38.548086 38.560952 18.557834
13467  0  1 38.547496 38.560362 21.413979
13468  0  1 38.546801 38.559667 24.269984
13469  0  1 38.546410 38.559276 27.125484
13470  0  1 38.546410 38.559276 29.980757
13471  0  1 38.546801 38.559667 32.836257
13472  0  1 38.547496 38.560362 35.692262
13473  0  1 38.548086 38.560952 38.548408
13474  0  1 38.548152 38.561018 41.403970
13475  0  1 38.547910 38.560776 44.259010
13476  0  1 38.547633 38.560499 47.113887
13477  0  1 38.547420 38.560286 49.968780
13478  0  1 38.547286 38.560152 52.823733
13479  0  1 38.547223 38.560088 55.678733
13480  0  1 38.547258 41.415495  1.427510
13481  0  1 38.547316 41.415565  4.282518
13482  0  1 38.547432 41.415703  7.137503
13483  0  1 38.547601 41.415896  9.992480
13484  0  1 38.547788 41.416094 12.847523
13485  0  1 38.547889 41.416173 15.702800
13486  0  1 38.547703 41.415931 18.558499
13487  0  1 38.547261 41.415450 21.414395
13488  0  1 38.546829 41.415018 24.270087
13489  0  1 38.546589 41.414792 27.125484
13490  0  1 38.546589 41.414792 29.980758
13491  0  1 38.546829 41.415018 32.836154
13492  0  1 38.547261 41.415450 35.691846
13493  0  1 38.547703 41.415931 38.547742
13494  0  1 38.547889 41.416173 41.403441
13495  0  1 38.547788 41.416094 44.258718
13496  0  1 38.547601 41.415896 47.113761
13497  0  1 38.547432 41.415703 49.968738
13498  0  1 38.547316 41.415565 52.823723
13499  0  1 38.547258 41.415495 55.678731
13500  0  1 38.547263 44.270831  1.427521
13501  0  1 38.547312 44.270897  4.282560
13502  0  1 38.547406 44.271017  7.137602
13503  0  1 38.547522 44.271154  9.992683
13504  0  1 38.547609 44.271234 12.847887
13505  0  1 38.547574 44.271148 15.703320
13506  0  1 38.547352 44.270867 18.558970
13507  0  1 38.547020 44.270514 21.414640
13508  0  1 38.546724 44.270238 24.270149
13509  0  1 38.546559 44.270098 27.125486
13510  0  1 38.546559 44.270098 29.980755
13511  0  1 38.546724 44.270238 32.836092
13512  0  1 38.547020 44.270514 35.691601
13513  0  1 38.547352 44.270867 38.547271
13514  0  1 38.547574 44.271148 41.402921
13515  0  1 38.547609 44.271234 44.258354
13516  0  1 38.547522 44.271154 47.113558
13517  0  1 38.547406 44.271017 49.968640
13518  0  1 38.547312 44.270897 52.823682
13519  0  1 38.547263 44.270831 55.678720
13520  0  1 38.547229 47.126081  1.427543
13521  0  1 38.547269 47.126135  4.282632
13522  0  1 38.547337 47.126219  7.137748
13523  0  1 38.547403 47.126285  9.992931
13524  0  1 38.547415 47.126264 12.848241
13525  0  1 38.547321 47.126119 15.703700
13526  0  1 38.547115 47.125881 18.559248
13527  0  1 38.546863 47.125640 21.414765
13528  0  1 38.546649 47.125463 24.270176
13529  0  1 38.546530 47.125374 27.125485
13530  0  1 38.546530 47.125374 29.980756
13531  0  1 38.546649 47.125463 32.836066
13532  0  1 38.546863 47.125640 35.691476
13533  0  1 38.547115 47.125881 38.546993
13534  0  1 38.547321 47.126119 41.402541
13535  0  1 38.547415 47.126264 44.258000
13536  0  1 38.547403 47.126285 47.113310
13537  0  1 38.547337 47.126219 49.968493
13538  0  1 38.547269 47.126135 52.823609
13539  0  1 38.547229 47.126081 55.678699
13540  0  1 38.547175 49.981253  1.427570
13541  0  1 38.547205 49.981288  4.282720
13542  0  1 38.547250 49.981333  7.137907
13543  0  1 38.547283 49.981343  9.993161
13544  0  1 38.547262 49.981285 12.848504
13545  0  1 38.547160 49.981155 15.703930
13546  0  1 38.546987 49.980990 18.559389
13547  0  1 38.546794 49.980839 21.414818
13548  0  1 38.546634 49.980731 24.270179
13549  0  1 38.546546 49.980678 27.125481
13550  0  1 38.546546 49.980678 29.980760
13551  0  1 38.546634 49.980731 32.836062
13552  0  1 38.546794 49.980839 35.691424
13553  0  1 38.546987 49.980990 38.546852
13554  0  1 38.547160 49.981155 41.402311
13555  0  1 38.547262 49.981285 44.257737
13556  0  1 38.547283 49.981343 47.113081
13557  0  1 38.547250 49.981333 49.968334
13558  0  1 38.547205 49.981288 52.823521
13559  0  1 38.547175 49.981253 55.678671
13560  0  1 38.547127 52.836362  1.427595
13561  0  1 38.547149 52.836379  4.282795
13562  0  1 38.547181 52.836394  7.138030
13563  0  1 38.547199 52.836383  9.993314
13564  0  1 38.547173 52.836333 12.848653
13565  0  1 38.547083 52.836252 15.704038
13566  0  1 38.546942 52.836161 18.559441
13567  0  1 38.546788 52.836082 21.414824
13568  0  1 38.546664 52.836027 24.270167
13569  0  1 38.546595 52.836000 27.125474
13570  0  1 38.546595 52.836000 29.980767
13571  0  1 38.546664 52.836027 32.836074
13572  0  1 38.546788 52.836082 35.691417
13573  0  1 38.546942 52.836161 38.546800
13574  0  1 38.547083 52.836252 41.402203
13575  0  1 38.547173 52.836333 44.257588
13576  0  1 38.547199 52.836383 47.112927
13577  0  1 38.547181 52.836394 49.968212
13578  0  1 38.547149 52.836379 52.823447
13579  0  1 38.547127 52.836362 55.678647
13580  0  1 38.547106 55.691428  1.427605
13581  0  1 38.547125 55.691430  4.282825
13582  0  1 38.547153 55.691429  7.138075
13583  0  1 38.547170 55.691420  9.993362
13584  0  1 38.547151 55.691401 12.848687
13585  0  1 38.547078 55.691377 15.704046
13586  0  1 38.546961 55.691353 18.559424
13587  0  1 38.546833 55.691334 21.414795
13588  0  1 38.546728 55.691323 24.270141
13589  0  1 38.546671 55.691318 27.125464
13590  0  1 38.546671 55.691318 29.980777
13591  0  1 38.546728 55.691323 32.836100
13592  0  1 38.546833 55.691334 35.691446
13593  0  1 38.546961 55.691353 38.546817
13594  0  1 38.547078 55.691377 41.402195
13595  0  1 38.547151 55.691401 44.257555
13596  0  1 38.547170 55.691420 47.112879
13597  0  1 38.547153 55.691429 49.968166
13598  0  1 38.547125 55.691430 52.823416
13599  0  1 38.547106 55.691428 55.678637
13600  0  1 41.402509  1.440204  1.427592
13601  0  1 41.402557  1.440186  4.282781
13602  0  1 41.402632  1.440164  7.137986
13603  0  1 41.402690  1.440152  9.993226
13604  0  1 41.402675  1.440160 12.848535
13605  0  1 41.402574  1.440185 15.703922
13606  0  1 41.402430  1.440218 18.559341
13607  0  1 41.402295  1.440251 21.414743
13608  0  1 41.402194  1.440276 24.270112
13609  0  1 41.402141  1.440289 27.125454
13610  0  1 41.402141  1.440289 29.980787
13611  0  1 41.402194  1.440276 32.836129
13612  0  1 41.402295  1.440251 35.691498
13613  0  1 41.402430  1.440218 38.546900
13614  0  1 41.402574  1.440185 41.402319
13615  0  1 41.402675  1.440160 44.257706
13616  0  1 41.402690  1.440152 47.113015
13617  0  1 41.402632  1.440164 49.968255
13618  0  1 41.402557  1.440186 52.823461
13619  0  1 41.402509  1.440204 55.678649
13620  0  1 41.402613  4.295264  1.427558
13621  0  1 41.402665  4.295218  4.282680
13622  0  1 41.402753  4.295158  7.137829
13623  0  1 41.402830  4.295124  9.993033
13624  0  1 41.402839  4.295140 12.848332
13625  0  1 41.402758  4.295203 15.703732
13626  0  1 41.402624  4.295287 18.559184
13627  0  1 41.402490  4.295367 21.414630
13628  0  1 41.402385  4.295426 24.270045
13629  0  1 41.402329  4.295457 27.125432
13630  0  1 41.402329  4.295457 29.980809
13631  0  1 41.402385  4.295426 32.836196
13632  0  1 41.402490  4.295367 35.691611
13633  0  1 41.402624  4.295287 38.547057
13634  0  1 41.402758  4.295203 41.402509
13635  0  1 41.402839  4.295140 44.257910
13636  0  1 41.402830  4.295124 47.113208
13637  0  1 41.402753  4.295158 49.968413
13638  0  1 41.402665  4.295218 52.823561
13639  0  1 41.402613  4.295264 55.678684
13640  0  1 41.402763  7.150362  1.427516
13641  0  1 41.402825  7.150284  4.282550
13642  0  1 41.402933  7.150166  7.137609
13643  0  1 41.403047  7.150069  9.992741
13644  0  1 41.403101  7.150049 12.848006
13645  0  1 41.403059  7.150117 15.703422
13646  0  1 41.402941  7.150241 18.558932
13647  0  1 41.402801  7.150367 21.414454
13648  0  1 41.402685  7.150462 24.269944
13649  0  1 41.402620  7.150511 27.125400
13650  0  1 41.402620  7.150511 29.980841
13651  0  1 41.402685  7.150462 32.836297
13652  0  1 41.402801  7.150367 35.691787
13653  0  1 41.402941  7.150241 38.547309
13654  0  1 41.403059  7.150117 41.402819
13655  0  1 41.403101  7.150049 44.258235
13656  0  1 41.403047  7.150069 47.113500
13657  0  1 41.402933  7.150166 49.968632
13658  0  1 41.402825  7.150284 52.823691
13659  0  1 41.402763  7.150362 55.678726
13660  0  1 41.402908 10.005531  1.427480
13661  0  1 41.402985 10.005427  4.282434
13662  0  1 41.403130 10.005242  7.137389
13663  0  1 41.403311 10.005035  9.992396
13664  0  1 41.403462 10.004900 12.847559
13665  0  1 41.403508 10.004904 15.702956
13666  0  1 41.403425 10.005034 18.558546
13667  0  1 41.403278 10.005200 21.414190
13668  0  1 41.403142 10.005332 24.269798
13669  0  1 41.403064 10.005401 27.125354
13670  0  1 41.403064 10.005401 29.980888
13671  0  1 41.403142 10.005332 32.836443
13672  0  1 41.403278 10.005200 35.692051
13673  0  1 41.403425 10.005034 38.547695
13674  0  1 41.403508 10.004904 41.403286
13675  0  1 41.403462 10.004900 44.258682
13676  0  1 41.403311 10.005035 47.113845
13677  0  1 41.403130 10.005242 49.968852
13678  0  1 41.402985 10.005427 52.823807
13679  0  1 41.402908 10.005531 55.678761
13680  0  1 41.402984 12.860816  1.427461
13681  0  1 41.403080 12.860698  4.282365
13682  0  1 41.403275 12.860465  7.137234
13683  0  1 41.403559 12.860138  9.992089
13684  0  1 41.403884 12.859793 12.847042
13685  0  1 41.404120 12.859594 15.702304
13686  0  1 41.404117 12.859656 18.557975
13687  0  1 41.403960 12.859846 21.413807
13688  0  1 41.403794 12.860017 24.269594
13689  0  1 41.403697 12.860109 27.125291
13690  0  1 41.403697 12.860109 29.980950
13691  0  1 41.403794 12.860017 32.836648
13692  0  1 41.403960 12.859846 35.692434
13693  0  1 41.404117 12.859656 38.548267
13694  0  1 41.404120 12.859594 41.403938
13695  0  1 41.403884 12.859793 44.259200
13696  0  1 41.403559 12.860138 47.114152
13697  0  1 41.403275 12.860465 49.969007
13698  0  1 41.403080 12.860698 52.823876
13699  0  1 41.402984 12.860816 55.678780
13700  0  1 41.402965 15.716230  1.427459
13701  0  1 41.403080 15.716116  4.282352
13702  0  1 41.403322 15.715873  7.137175
13703  0  1 41.403713 15.715482  9.991908
13704  0  1 41.404250 15.714946 12.846611
13705  0  1 41.404809 15.714386 15.701531
13706  0  1 41.404964 15.714232 18.557192
13707  0  1 41.404770 15.714425 21.413289
13708  0  1 41.404537 15.714658 24.269334
13709  0  1 41.404407 15.714788 27.125215
13710  0  1 41.404407 15.714788 29.981026
13711  0  1 41.404537 15.714658 32.836907
13712  0  1 41.404770 15.714425 35.692952
13713  0  1 41.404964 15.714232 38.549050
13714  0  1 41.404809 15.714386 41.404710
13715  0  1 41.404250 15.714946 44.259630
13716  0  1 41.403713 15.715482 47.114333
13717  0  1 41.403322 15.715873 49.969067
13718  0  1 41.403080 15.716116 52.823890
13719  0  1 41.402965 15.716230 55.678782
13720  0  1 41.402888 18.571725  1.427469
13721  0  1 41.403012 18.571631  4.282377
13722  0  1 41.403280 18.571424  7.137197
13723  0  1 41.403733 18.571068  9.991880
13724  0  1 41.404402 18.570520 12.846427
13725  0  1 41.405197 18.569802 15.701032
13726  0  1 41.405610 18.569219 18.556333
13727  0  1 41.405261 18.569384 21.412696
13728  0  1 41.404832 18.569761 24.269069
13729  0  1 41.404607 18.569995 27.125147
13730  0  1 41.404607 18.569995 29.981094
13731  0  1 41.404832 18.569761 32.837172
13732  0  1 41.405261 18.569384 35.693545
13733  0  1 41.405610 18.569219 38.549908
13734  0  1 41.405197 18.569802 41.405209
13735  0  1 41.404402 18.570520 44.259815
13736  0  1 41.403733 18.571068 47.114362
13737  0  1 41.403280 18.571424 49.969045
13738  0  1 41.403012 18.571631 52.823865
13739  0  1 41.402888 18.571725 55.678772
13740  0  1 41.402794 21.427243  1.427483
13741  0  1 41.402918 21.427178  4.282417
13742  0  1 41.403187 21.427035  7.137260
13743  0  1 41.403647 21.426786  9.991951
13744  0  1 41.404338 21.426389 12.846464
13745  0  1 41.405165 21.425827 15.700957
13746  0  1 41.405556 21.425227 18.556047
13747  0  1 41.405106 21.424977 21.412112
13748  0  1 41.404270 21.425494 24.268799
13749  0  1 41.403840 21.425912 27.125086
13750  0  1 41.403840 21.425912 29.981156
13751  0  1 41.404270 21.425494 32.837443
13752  0  1 41.405106 21.424977 35.694129
13753  0  1 41.405556 21.425227 38.550195
13754  0  1 41.405165 21.425827 41.405284
13755  0  1 41.404338 21.426389 44.259777
13756  0  1 41.403647 21.426786 47.114291
13757  0  1 41.403187 21.427035 49.968981
13758  0  1 41.402918 21.427178 52.823824
13759  0  1 41.402794 21.427243 55.678759
13760  0  1 41.402706 24.282753  1.427495
13761  0  1 41.402823 24.282720  4.282455
13762  0  1 41.403077 24.282649  7.137328
13763  0  1 41.403510 24.282527  9.992055
13764  0  1 41.404154 24.282336 12.846609
13765  0  1 41.404892 24.282058 15.701141
13766  0  1 41.405103 24.281699 18.556249
13767  0  1 41.404366 24.281368 21.412187
13768  0  1 41.403245 24.281360 24.268501
13769  0  1 41.402549 24.281811 27.124968
13770  0  1 41.402549 24.281811 29.981274
13771  0  1 41.403245 24.281360 32.837740
13772  0  1 41.404366 24.281368 35.694054
13773  0  1 41.405103 24.281699 38.549992
13774  0  1 41.404892 24.282058 41.405100
13775  0  1 41.404154 24.282336 44.259632
13776  0  1 41.403510 24.282527 47.114186
13777  0  1 41.403077 24.282649 49.968913
13778  0  1 41.402823 24.282720 52.823786
13779  0  1 41.402706 24.282753 55.678747
13780  0  1 41.402635 27.138247  1.427503
13781  0  1 41.402742 27.138243  4.282482
13782  0  1 41.402975 27.138236  7.137383
13783  0  1 41.403366 27.138230  9.992152
13784  0  1 41.403937 27.138226 12.846777
13785  0  1 41.404554 27.138208 15.701414
13786  0  1 41.404599 27.138089 18.556640
13787  0  1 41.403672 27.137781 21.412632
13788  0  1 41.402359 27.137367 24.268794
13789  0  1 41.401477 27.137082 27.124916
13790  0  1 41.401477 27.137082 29.981325
13791  0  1 41.402359 27.137367 32.837447
13792  0  1 41.403672 27.137781 35.693609
13793  0  1 41.404599 27.138089 38.549601
13794  0  1 41.404554 27.138208 41.404827
13795  0  1 41.403937 27.138226 44.259464
13796  0  1 41.403366 27.138230 47.114089
13797  0  1 41.402975 27.138236 49.968859
13798  0  1 41.402742 27.138243 52.823759
13799  0  1 41.402635 27.138247 55.678738
13800  0  1 41.402588 29.993727  1.427507
13801  0  1 41.402686 29.993747  4.282498
13802  0  1 41.402897 29.993793  7.137420
13803  0  1 41.403244 29.993876  9.992232
13804  0  1 41.403734 29.994010 12.846939
13805  0  1 41.404230 29.994172 15.701707
13806  0  1 41.404177 29.994198 18.557062
13807  0  1 41.403248 29.993866 21.413147
13808  0  1 41.401977 29.993146 24.269375
13809  0  1 41.401096 29.992342 27.125321
13810  0  1 41.401096 29.992342 29.980920
13811  0  1 41.401977 29.993146 32.836866
13812  0  1 41.403248 29.993866 35.693094
13813  0  1 41.404177 29.994198 38.549179
13814  0  1 41.404230 29.994172 41.404535
13815  0  1 41.403734 29.994010 44.259302
13816  0  1 41.403244 29.993876 47.114009
13817  0  1 41.402897 29.993793 49.968822
13818  0  1 41.402686 29.993747 52.823743
13819  0  1 41.402588 29.993727 55.678734
13820  0  1 41.402571 32.849198  1.427509
13821  0  1 41.402660 32.849237  4.282505
13822  0  1 41.402849 32.849321  7.137444
13823  0  1 41.403150 32.849466  9.992302
13824  0  1 41.403554 32.849682 12.847102
13825  0  1 41.403928 32.849931 15.702018
13826  0  1 41.403824 32.849991 18.557499
13827  0  1 41.403022 32.849577 21.413640
13828  0  1 41.401999 32.848735 24.269856
13829  0  1 41.401420 32.848114 27.125477
13830  0  1 41.401420 32.848114 29.980765
13831  0  1 41.401999 32.848735 32.836385
13832  0  1 41.403022 32.849577 35.692602
13833  0  1 41.403824 32.849991 38.548742
13834  0  1 41.403928 32.849931 41.404223
13835  0  1 41.403554 32.849682 44.259139
13836  0  1 41.403150 32.849466 47.113940
13837  0  1 41.402849 32.849321 49.968797
13838  0  1 41.402660 32.849237 52.823736
13839  0  1 41.402571 32.849198 55.678733
13840  0  1 41.402585 35.704665  1.427509
13841  0  1 41.402665 35.704716  4.282510
13842  0  1 41.402831 35.704825  7.137468
13843  0  1 41.403082 35.704999  9.992378
13844  0  1 41.403389 35.705235 12.847290
13845  0  1 41.403625 35.705463 15.702379
13846  0  1 41.403463 35.705437 18.557989
13847  0  1 41.402826 35.704958 21.414079
13848  0  1 41.402165 35.704331 24.270012
13849  0  1 41.401816 35.703948 27.125486
13850  0  1 41.401816 35.703948 29.980755
13851  0  1 41.402165 35.704331 32.836229
13852  0  1 41.402826 35.704958 35.692163
13853  0  1 41.403463 35.705437 38.548253
13854  0  1 41.403625 35.705463 41.403862
13855  0  1 41.403389 35.705235 44.258951
13856  0  1 41.403082 35.704999 47.113863
13857  0  1 41.402831 35.704825 49.968773
13858  0  1 41.402665 35.704716 52.823732
13859  0  1 41.402585 35.704665 55.678732
13860  0  1 41.402629 38.560124  1.427510
13861  0  1 41.402699 38.560182  4.282518
13862  0  1 41.402837 38.560298  7.137503
13863  0  1 41.403030 38.560467  9.992480
13864  0  1 41.403228 38.560654 12.847523
13865  0  1 41.403307 38.560755 15.702800
13866  0  1 41.403065 38.560569 18.558499
13867  0  1 41.402584 38.560127 21.414395
13868  0  1 41.402152 38.559695 24.270087
13869  0  1 41.401926 38.559455 27.125484
13870  0  1 41.401926 38.559455 29.980758
13871  0  1 41.402152 38.559695 32.836154
13872  0  1 41.402584 38.560127 35.691846
13873  0  1 41.403065 38.560569 38.547742
13874  0  1 41.403307 38.560755 41.403441
13875  0  1 41.403228 38.560654 44.258718
13876  0  1 41.403030 38.560467 47.113761
13877  0  1 41.402837 38.560298 49.968738
13878  0  1 41.402699 38.560182 52.823723
13879  0  1 41.402629 38.560124 55.678731
13880  0  1 41.402688 41.415554  1.427515
13881  0  1 41.402746 41.415612  4.282539
13882  0  1 41.402853 41.415719  7.137562
13883  0  1 41.402984 41.415850  9.992617
13884  0  1 41.403077 41.415943 12.847793
13885  0  1 41.403025 41.415891 15.703213
13886  0  1 41.402761 41.415627 18.558893
13887  0  1 41.402397 41.415263 21.414604
13888  0  1 41.402096 41.414962 24.270140
13889  0  1 41.401939 41.414804 27.125485
13890  0  1 41.401939 41.414804 29.980756
13891  0  1 41.402096 41.414962 32.836102
13892  0  1 41.402397 41.415263 35.691637
13893  0  1 41.402761 41.415627 38.547349
13894  0  1 41.403025 41.415891 41.403028
13895  0  1 41.403077 41.415943 44.258448
13896  0  1 41.402984 41.415850 47.113624
13897  0  1 41.402853 41.415719 49.968680
13898  0  1 41.402746 41.415612 52.823702
13899  0  1 41.402688 41.415554 55.678727
13900  0  1 41.402719 44.270905  1.427526
13901  0  1 41.402765 44.270957  4.282580
13902  0  1 41.402844 44.271044  7.137652
13903  0  1 41.402923 44.271124  9.992787
13904  0  1 41.402938 44.271129 12.848063
13905  0  1 41.402819 44.270991 15.703545
13906  0  1 41.402573 44.270736 18.559155
13907  0  1 41.402296 44.270464 21.414729
13908  0  1 41.402079 44.270262 24.270168
13909  0  1 41.401965 44.270159 27.125486
13910  0  1 41.401965 44.270159 29.980756
13911  0  1 41.402079 44.270262 32.836073
13912  0  1 41.402296 44.270464 35.691512
13913  0  1 41.402573 44.270736 38.547086
13914  0  1 41.402819 44.270991 41.402696
13915  0  1 41.402938 44.271129 44.258178
13916  0  1 41.402923 44.271124 47.113454
13917  0  1 41.402844 44.271044 49.968589
13918  0  1 41.402765 44.270957 52.823661
13919  0  1 41.402719 44.270905 55.678715
13920  0  1 41.402683 47.126138  1.427547
13921  0  1 41.402721 47.126182  4.282646
13922  0  1 41.402781 47.126243  7.137775
13923  0  1 41.402824 47.126274  9.992979
13924  0  1 41.402790 47.126216 12.848317
13925  0  1 41.402643 47.126059 15.703795
13926  0  1 41.402423 47.125851 18.559326
13927  0  1 41.402201 47.125659 21.414805
13928  0  1 41.402033 47.125523 24.270186
13929  0  1 41.401945 47.125456 27.125486
13930  0  1 41.401945 47.125456 29.980755
13931  0  1 41.402033 47.125523 32.836055
13932  0  1 41.402201 47.125659 35.691436
13933  0  1 41.402423 47.125851 38.546915
13934  0  1 41.402643 47.126059 41.402446
13935  0  1 41.402790 47.126216 44.257924
13936  0  1 41.402824 47.126274 47.113263
13937  0  1 41.402781 47.126243 49.968467
13938  0  1 41.402721 47.126182 52.823595
13939  0  1 41.402683 47.126138 55.678695
13940  0  1 41.402594 49.981271  1.427573
13941  0  1 41.402630 49.981303  4.282725
13942  0  1 41.402684 49.981340  7.137909
13943  0  1 41.402715 49.981337  9.993160
13944  0  1 41.402666 49.981266 12.848511
13945  0  1 41.402522 49.981137 15.703955
13946  0  1 41.402326 49.980990 18.559422
13947  0  1 41.402142 49.980865 21.414841
13948  0  1 41.402005 49.980779 24.270190
13949  0  1 41.401933 49.980737 27.125484
13950  0  1 41.401933 49.980737 29.980757
13951  0  1 41.402005 49.980779 32.836051
13952  0  1 41.402142 49.980865 35.691400
13953  0  1 41.402326 49.980990 38.546820
13954  0  1 41.402522 49.981137 41.402287
13955  0  1 41.402666 49.981266 44.257730
13956  0  1 41.402715 49.981337 47.113082
13957  0  1 41.402684 49.981340 49.968332
13958  0  1 41.402630 49.981303 52.823516
13959  0  1 41.402594 49.981271 55.678669
13960  0  1 41.402510 52.836348  1.427596
13961  0  1 41.402547 52.836367  4.282794
13962  0  1 41.402606 52.836382  7.138015
13963  0  1 41.402641 52.836368  9.993280
13964  0  1 41.402598 52.836316 12.848618
13965  0  1 41.402466 52.836237 15.704026
13966  0  1 41.402293 52.836154 18.559453
13967  0  1 41.402134 52.836086 21.414843
13968  0  1 41.402018 52.836041 24.270181
13969  0  1 41.401957 52.836020 27.125479
13970  0  1 41.401957 52.836020 29.980763
13971  0  1 41.402018 52.836041 32.836061
13972  0  1 41.402134 52.836086 35.691399
13973  0  1 41.402293 52.836154 38.546789
13974  0  1 41.402466 52.836237 41.402215
13975  0  1 41.402598 52.836316 44.257624
13976  0  1 41.402641 52.836368 47.112961
13977  0  1 41.402606 52.836382 49.968226
13978  0  1 41.402547 52.836367 52.823448
13979  0  1 41.402510 52.836348 55.678646
13980  0  1 41.402474 55.691400  1.427605
13981  0  1 41.402517 55.691402  4.282820
13982  0  1 41.402583 55.691400  7.138049
13983  0  1 41.402628 55.691388  9.993308
13984  0  1 41.402598 55.691368 12.848628
13985  0  1 41.402481 55.691343 15.704016
13986  0  1 41.402325 55.691321 18.559427
13987  0  1 41.402182 55.691305 21.414811
13988  0  1 41.402078 55.691296 24.270156
13989  0  1 41.402023 55.691292 27.125469
13990  0  1 41.402023 55.691292 29.980772
13991  0  1 41.402078 55.691296 32.836086
13992  0  1 41.402182 55.691305 35.691430
13993  0  1 41.402325 55.691321 38.546815
13994  0  1 41.402481 55.691343 41.402225
13995  0  1 41.402598 55.691368 44.257613
13996  0  1 41.402628 55.691388 47.112934
13997  0  1 41.402583 55.691400 49.968193
13998  0  1 41.402517 55.691402 52.823421
13999  0  1 41.402474 55.691400 55.678636
14000  0  1 44.257860  1.440181  1.427586
14001  0  1 44.257971  1.440155  4.282747
14002  0  1 44.258134  1.440127  7.137891
14003  0  1 44.258220  1.440115  9.993094
14004  0  1 44.258133  1.440125 12.848457
14005  0  1 44.257949  1.440150 15.703925
14006  0  1 44.257780  1.440178 18.559377
14007  0  1 44.257650  1.440203 21.414779
14008  0  1 44.257562  1.440222 24.270136
14009  0  1 44.257517  1.440232 27.125463
14010  0  1 44.257517  1.440232 29.980779
14011  0  1 44.257562  1.440222 32.836105
14012  0  1 44.257650  1.440203 35.691462
14013  0  1 44.257780  1.440178 38.546864
14014  0  1 44.257949  1.440150 41.402316
14015  0  1 44.258133  1.440125 44.257784
14016  0  1 44.258220  1.440115 47.113147
14017  0  1 44.258134  1.440127 49.968350
14018  0  1 44.257971  1.440155 52.823494
14019  0  1 44.257860  1.440181 55.678655
14020  0  1 44.258044  4.295208  1.427545
14021  0  1 44.258136  4.295147  4.282633
14022  0  1 44.258292  4.295079  7.137730
14023  0  1 44.258385  4.295057  9.992912
14024  0  1 44.258318  4.295091 12.848271
14025  0  1 44.258155  4.295159 15.703752
14026  0  1 44.257995  4.295232 18.559235
14027  0  1 44.257866  4.295295 21.414677
14028  0  1 44.257777  4.295340 24.270075
14029  0  1 44.257731  4.295362 27.125442
14030  0  1 44.257731  4.295362 29.980799
14031  0  1 44.257777  4.295340 32.836166
14032  0  1 44.257866  4.295295 35.691564
14033  0  1 44.257995  4.295232 38.547006
14034  0  1 44.258155  4.295159 41.402489
14035  0  1 44.258318  4.295091 44.257970
14036  0  1 44.258385  4.295057 47.113329
14037  0  1 44.258292  4.295079 49.968511
14038  0  1 44.258136  4.295147 52.823608
14039  0  1 44.258044  4.295208 55.678696
14040  0  1 44.258296  7.150241  1.427501
14041  0  1 44.258377  7.150159  4.282500
14042  0  1 44.258512  7.150044  7.137520
14043  0  1 44.258615  7.149984  9.992654
14044  0  1 44.258587  7.150010 12.847991
14045  0  1 44.258459  7.150098 15.703488
14046  0  1 44.258314  7.150204 18.559021
14047  0  1 44.258186  7.150299 21.414526
14048  0  1 44.258092  7.150368 24.269988
14049  0  1 44.258043  7.150403 27.125414
14050  0  1 44.258043  7.150403 29.980827
14051  0  1 44.258092  7.150368 32.836253
14052  0  1 44.258186  7.150299 35.691715
14053  0  1 44.258314  7.150204 38.547221
14054  0  1 44.258459  7.150098 41.402753
14055  0  1 44.258587  7.150010 44.258250
14056  0  1 44.258615  7.149984 47.113587
14057  0  1 44.258512  7.150044 49.968721
14058  0  1 44.258377  7.150159 52.823742
14059  0  1 44.258296  7.150241 55.678741
14060  0  1 44.258478 10.005370  1.427469
14061  0  1 44.258561 10.005279  4.282404
14062  0  1 44.258706 10.005123  7.137349
14063  0  1 44.258859 10.004972  9.992378
14064  0  1 44.258914 10.004928 12.847639
14065  0  1 44.258853 10.004986 15.703130
14066  0  1 44.258734 10.005101 18.558726
14067  0  1 44.258606 10.005221 21.414322
14068  0  1 44.258505 10.005312 24.269872
14069  0  1 44.258451 10.005359 27.125377
14070  0  1 44.258451 10.005359 29.980864
14071  0  1 44.258505 10.005312 32.836370
14072  0  1 44.258606 10.005221 35.691919
14073  0  1 44.258734 10.005101 38.547516
14074  0  1 44.258853 10.004986 41.403111
14075  0  1 44.258914 10.004928 44.258602
14076  0  1 44.258859 10.004972 47.113863
14077  0  1 44.258706 10.005123 49.968892
14078  0  1 44.258561 10.005279 52.823838
14079  0  1 44.258478 10.005370 55.678772
14080  0  1 44.258484 12.860711  1.427458
14081  0  1 44.258584 12.860612  4.282363
14082  0  1 44.258772 12.860423  7.137256
14083  0  1 44.259015 12.860181  9.992185
14084  0  1 44.259224 12.859971 12.847283
14085  0  1 44.259280 12.859915 15.702705
14086  0  1 44.259196 12.859999 18.558360
14087  0  1 44.259058 12.860138 21.414071
14088  0  1 44.258940 12.860256 24.269733
14089  0  1 44.258876 12.860319 27.125333
14090  0  1 44.258876 12.860319 29.980908
14091  0  1 44.258940 12.860256 32.836509
14092  0  1 44.259058 12.860138 35.692171
14093  0  1 44.259196 12.859999 38.547881
14094  0  1 44.259280 12.859915 41.403537
14095  0  1 44.259224 12.859971 44.258958
14096  0  1 44.259015 12.860181 47.114056
14097  0  1 44.258772 12.860423 49.968985
14098  0  1 44.258584 12.860612 52.823878
14099  0  1 44.258484 12.860711 55.678783
14100  0  1 44.258380 15.716212  1.427461
14101  0  1 44.258497 15.716115  4.282365
14102  0  1 44.258730 15.715920  7.137234
14103  0  1 44.259057 15.715636  9.992089
14104  0  1 44.259403 15.715312 12.847042
14105  0  1 44.259602 15.715075 15.702304
14106  0  1 44.259540 15.715078 18.557975
14107  0  1 44.259350 15.715235 21.413807
14108  0  1 44.259178 15.715402 24.269594
14109  0  1 44.259087 15.715498 27.125291
14110  0  1 44.259087 15.715498 29.980950
14111  0  1 44.259178 15.715402 32.836648
14112  0  1 44.259350 15.715235 35.692434
14113  0  1 44.259540 15.715078 38.548267
14114  0  1 44.259602 15.715075 41.403938
14115  0  1 44.259403 15.715312 44.259200
14116  0  1 44.259057 15.715636 47.114152
14117  0  1 44.258730 15.715920 49.969007
14118  0  1 44.258497 15.716115 52.823876
14119  0  1 44.258380 15.716212 55.678780
14120  0  1 44.258268 18.571747  1.427470
14121  0  1 44.258394 18.571669  4.282388
14122  0  1 44.258647 18.571506  7.137257
14123  0  1 44.259014 18.571255  9.992082
14124  0  1 44.259421 18.570935 12.846954
14125  0  1 44.259674 18.570631 15.702092
14126  0  1 44.259603 18.570499 18.557667
14127  0  1 44.259288 18.570651 21.413579
14128  0  1 44.258998 18.570887 24.269478
14129  0  1 44.258845 18.571039 27.125258
14130  0  1 44.258845 18.571039 29.980983
14131  0  1 44.258998 18.570887 32.836764
14132  0  1 44.259288 18.570651 35.692663
14133  0  1 44.259603 18.570499 38.548574
14134  0  1 44.259674 18.570631 41.404149
14135  0  1 44.259421 18.570935 44.259288
14136  0  1 44.259014 18.571255 47.114160
14137  0  1 44.258647 18.571506 49.968984
14138  0  1 44.258394 18.571669 52.823853
14139  0  1 44.258268 18.571747 55.678772
14140  0  1 44.258168 21.427275  1.427480
14141  0  1 44.258293 21.427224  4.282419
14142  0  1 44.258546 21.427116  7.137304
14143  0  1 44.258913 21.426946  9.992135
14144  0  1 44.259314 21.426718 12.846995
14145  0  1 44.259528 21.426474 15.702099
14146  0  1 44.259360 21.426304 18.557610
14147  0  1 44.258903 21.426324 21.413436
14148  0  1 44.258449 21.426562 24.269381
14149  0  1 44.258208 21.426759 27.125228
14150  0  1 44.258208 21.426759 29.981013
14151  0  1 44.258449 21.426561 32.836860
14152  0  1 44.258903 21.426324 35.692805
14153  0  1 44.259360 21.426304 38.548632
14154  0  1 44.259528 21.426474 41.404142
14155  0  1 44.259314 21.426718 44.259247
14156  0  1 44.258913 21.426946 47.114106
14157  0  1 44.258546 21.427116 49.968937
14158  0  1 44.258293 21.427224 52.823822
14159  0  1 44.258168 21.427275 55.678761
14160  0  1 44.258082 24.282784  1.427490
14161  0  1 44.258201 24.282761  4.282450
14162  0  1 44.258440 24.282712  7.137359
14163  0  1 44.258783 24.282635  9.992217
14164  0  1 44.259143 24.282528 12.847108
14165  0  1 44.259284 24.282394 15.702243
14166  0  1 44.258996 24.282254 18.557762
14167  0  1 44.258394 24.282159 21.413521
14168  0  1 44.257810 24.282186 24.269338
14169  0  1 44.257486 24.282317 27.125196
14170  0  1 44.257486 24.282317 29.981045
14171  0  1 44.257810 24.282186 32.836903
14172  0  1 44.258394 24.282159 35.692720
14173  0  1 44.258996 24.282254 38.548479
14174  0  1 44.259284 24.282394 41.403998
14175  0  1 44.259143 24.282528 44.259134
14176  0  1 44.258783 24.282635 47.114024
14177  0  1 44.258440 24.282712 49.968882
14178  0  1 44.258201 24.282761 52.823791
14179  0  1 44.258082 24.282784 55.678751
14180  0  1 44.258011 27.138274  1.427499
14181  0  1 44.258122 27.138276  4.282477
14182  0  1 44.258341 27.138280  7.137412
14183  0  1 44.258651 27.138286  9.992307
14184  0  1 44.258960 27.138285 12.847247
14185  0  1 44.259031 27.138249 15.702441
14186  0  1 44.258664 27.138141 18.558006
14187  0  1 44.257983 27.137954 21.413764
14188  0  1 44.257329 27.137742 24.269495
14189  0  1 44.256949 27.137600 27.125220
14190  0  1 44.256949 27.137600 29.981021
14191  0  1 44.257329 27.137742 32.836746
14192  0  1 44.257983 27.137954 35.692477
14193  0  1 44.258664 27.138141 38.548236
14194  0  1 44.259031 27.138249 41.403801
14195  0  1 44.258960 27.138285 44.258994
14196  0  1 44.258651 27.138286 47.113935
14197  0  1 44.258341 27.138280 49.968829
14198  0  1 44.258122 27.138276 52.823764
14199  0  1 44.258011 27.138274 55.678743
14200  0  1 44.257960 29.993748  1.427505
14201  0  1 44.258061 29.993770  4.282500
14202  0  1 44.258259 29.993817  7.137460
14203  0  1 44.258532 29.993886  9.992396
14204  0  1 44.258787 29.993962 12.847394
14205  0  1 44.258809 29.993988 15.702649
14206  0  1 44.258420 29.993884 18.558262
14207  0  1 44.257747 29.993608 21.414052
14208  0  1 44.257105 29.993207 24.269777
14209  0  1 44.256727 29.992857 27.125370
14210  0  1 44.256727 29.992857 29.980871
14211  0  1 44.257105 29.993207 32.836464
14212  0  1 44.257747 29.993608 35.692189
14213  0  1 44.258420 29.993884 38.547979
14214  0  1 44.258809 29.993988 41.403592
14215  0  1 44.258787 29.993962 44.258847
14216  0  1 44.258532 29.993886 47.113846
14217  0  1 44.258259 29.993817 49.968781
14218  0  1 44.258061 29.993770 52.823741
14219  0  1 44.257960 29.993748 55.678736
14220  0  1 44.257932 32.849212  1.427511
14221  0  1 44.258023 32.849249  4.282520
14222  0  1 44.258198 32.849325  7.137505
14223  0  1 44.258430 32.849435  9.992485
14224  0  1 44.258632 32.849553 12.847547
14225  0  1 44.258619 32.849601 15.702862
14226  0  1 44.258255 32.849472 18.558509
14227  0  1 44.257661 32.849118 21.414317
14228  0  1 44.257112 32.848640 24.270021
14229  0  1 44.256818 32.848311 27.125463
14230  0  1 44.256818 32.848311 29.980778
14231  0  1 44.257112 32.848640 32.836220
14232  0  1 44.257661 32.849118 35.691924
14233  0  1 44.258255 32.849472 38.547733
14234  0  1 44.258619 32.849601 41.403380
14235  0  1 44.258632 32.849553 44.258694
14236  0  1 44.258430 32.849435 47.113756
14237  0  1 44.258198 32.849325 49.968736
14238  0  1 44.258023 32.849249 52.823721
14239  0  1 44.257932 32.849212 55.678731
14240  0  1 44.257931 35.704670  1.427516
14241  0  1 44.258011 35.704717  4.282539
14242  0  1 44.258160 35.704809  7.137552
14243  0  1 44.258348 35.704936  9.992581
14244  0  1 44.258493 35.705059 12.847711
14245  0  1 44.258449 35.705086 15.703085
14246  0  1 44.258129 35.704911 18.558748
14247  0  1 44.257655 35.704533 21.414517
14248  0  1 44.257257 35.704134 24.270119
14249  0  1 44.257054 35.703893 27.125487
14250  0  1 44.257054 35.703893 29.980755
14251  0  1 44.257257 35.704134 32.836122
14252  0  1 44.257655 35.704533 35.691724
14253  0  1 44.258129 35.704911 38.547494
14254  0  1 44.258449 35.705086 41.403156
14255  0  1 44.258493 35.705059 44.258530
14256  0  1 44.258348 35.704936 47.113661
14257  0  1 44.258160 35.704809 49.968689
14258  0  1 44.258011 35.704717 52.823702
14259  0  1 44.257931 35.704670 55.678726
14260  0  1 44.257965 38.560129  1.427521
14261  0  1 44.258031 38.560178  4.282560
14262  0  1 44.258151 38.560272  7.137602
14263  0  1 44.258288 38.560388  9.992683
14264  0  1 44.258368 38.560475 12.847887
14265  0  1 44.258282 38.560440 15.703320
14266  0  1 44.258001 38.560218 18.558970
14267  0  1 44.257648 38.559886 21.414640
14268  0  1 44.257372 38.559590 24.270149
14269  0  1 44.257232 38.559425 27.125486
14270  0  1 44.257232 38.559425 29.980755
14271  0  1 44.257372 38.559590 32.836092
14272  0  1 44.257648 38.559886 35.691601
14273  0  1 44.258001 38.560218 38.547271
14274  0  1 44.258282 38.560440 41.402921
14275  0  1 44.258368 38.560475 44.258354
14276  0  1 44.258288 38.560388 47.113558
14277  0  1 44.258151 38.560272 49.968640
14278  0  1 44.258031 38.560178 52.823682
14279  0  1 44.257965 38.560129 55.678720
14280  0  1 44.258039 41.415585  1.427526
14281  0  1 44.258091 41.415631  4.282580
14282  0  1 44.258178 41.415710  7.137652
14283  0  1 44.258258 41.415789  9.992787
14284  0  1 44.258263 41.415804 12.848063
14285  0  1 44.258125 41.415685 15.703545
14286  0  1 44.257870 41.415439 18.559155
14287  0  1 44.257599 41.415162 21.414729
14288  0  1 44.257396 41.414945 24.270168
14289  0  1 44.257293 41.414831 27.125486
14290  0  1 44.257293 41.414831 29.980756
14291  0  1 44.257396 41.414945 32.836073
14292  0  1 44.257599 41.415162 35.691512
14293  0  1 44.257870 41.415439 38.547086
14294  0  1 44.258125 41.415685 41.402696
14295  0  1 44.258263 41.415804 44.258178
14296  0  1 44.258258 41.415789 47.113454
14297  0  1 44.258178 41.415710 49.968589
14298  0  1 44.258091 41.415631 52.823661
14299  0  1 44.258039 41.415585 55.678715
14300  0  1 44.258143 44.271009  1.427532
14301  0  1 44.258179 44.271045  4.282601
14302  0  1 44.258233 44.271099  7.137699
14303  0  1 44.258258 44.271124  9.992879
14304  0  1 44.258190 44.271056 12.848216
14305  0  1 44.258001 44.270867 15.703733
14306  0  1 44.257762 44.270628 18.559298
14307  0  1 44.257542 44.270408 21.414796
14308  0  1 44.257384 44.270250 24.270186
14309  0  1 44.257305 44.270171 27.125487
14310  0  1 44.257305 44.270171 29.980755
14311  0  1 44.257384 44.270250 32.836056
14312  0  1 44.257542 44.270408 35.691445
14313  0  1 44.257762 44.270628 38.546944
14314  0  1 44.258001 44.270867 41.402508
14315  0  1 44.258190 44.271056 44.258025
14316  0  1 44.258258 44.271124 47.113363
14317  0  1 44.258233 44.271099 49.968542
14318  0  1 44.258179 44.271045 52.823640
14319  0  1 44.258143 44.271009 55.678709
14320  0  1 44.258172 47.126286  1.427543
14321  0  1 44.258203 47.126317  4.282633
14322  0  1 44.258244 47.126352  7.137755
14323  0  1 44.258241 47.126336  9.992965
14324  0  1 44.258115 47.126202 12.848363
14325  0  1 44.257901 47.126007 15.703884
14326  0  1 44.257680 47.125809 18.559401
14327  0  1 44.257495 47.125647 21.414843
14328  0  1 44.257367 47.125538 24.270198
14329  0  1 44.257303 47.125484 27.125488
14330  0  1 44.257303 47.125484 29.980754
14331  0  1 44.257367 47.125538 32.836043
14332  0  1 44.257495 47.125647 35.691398
14333  0  1 44.257680 47.125809 38.546841
14334  0  1 44.257901 47.126007 41.402357
14335  0  1 44.258115 47.126202 44.257878
14336  0  1 44.258241 47.126336 47.113276
14337  0  1 44.258244 47.126352 49.968487
14338  0  1 44.258203 47.126317 52.823608
14339  0  1 44.258172 47.126286 55.678698
14340  0  1 44.258057 49.981371  1.427562
14341  0  1 44.258102 49.981407  4.282688
14342  0  1 44.258167 49.981438  7.137835
14343  0  1 44.258174 49.981395  9.993082
14344  0  1 44.258042 49.981275 12.848488
14345  0  1 44.257827 49.981122 15.703989
14346  0  1 44.257623 49.980981 18.559465
14347  0  1 44.257461 49.980873 21.414869
14348  0  1 44.257352 49.980803 24.270203
14349  0  1 44.257297 49.980769 27.125487
14350  0  1 44.257297 49.980769 29.980754
14351  0  1 44.257352 49.980803 32.836039
14352  0  1 44.257461 49.980873 35.691372
14353  0  1 44.257623 49.980981 38.546777
14354  0  1 44.257827 49.981122 41.402252
14355  0  1 44.258042 49.981275 44.257754
14356  0  1 44.258174 49.981395 47.113159
14357  0  1 44.258167 49.981438 49.968406
14358  0  1 44.258102 49.981407 52.823554
14359  0  1 44.258057 49.981371 55.678679
14360  0  1 44.257893 52.836380  1.427586
14361  0  1 44.257964 52.836411  4.282755
14362  0  1 44.258083 52.836430  7.137927
14363  0  1 44.258125 52.836399  9.993167
14364  0  1 44.258006 52.836322 12.848557
14365  0  1 44.257798 52.836229 15.704036
14366  0  1 44.257608 52.836148 18.559485
14367  0  1 44.257463 52.836088 21.414870
14368  0  1 44.257366 52.836051 24.270196
14369  0  1 44.257318 52.836033 27.125484
14370  0  1 44.257318 52.836033 29.980758
14371  0  1 44.257366 52.836051 32.836045
14372  0  1 44.257463 52.836088 35.691371
14373  0  1 44.257608 52.836148 38.546756
14374  0  1 44.257798 52.836229 41.402205
14375  0  1 44.258006 52.836322 44.257684
14376  0  1 44.258125 52.836399 47.113074
14377  0  1 44.258083 52.836430 49.968315
14378  0  1 44.257964 52.836411 52.823487
14379  0  1 44.257893 52.836380 55.678656
14380  0  1 44.257808 55.691396  1.427600
14381  0  1 44.257913 55.691404  4.282789
14382  0  1 44.258064 55.691403  7.137957
14383  0  1 44.258134 55.691386  9.993178
14384  0  1 44.258031 55.691356 12.848550
14385  0  1 44.257834 55.691325 15.704017
14386  0  1 44.257656 55.691300 18.559458
14387  0  1 44.257521 55.691285 21.414842
14388  0  1 44.257431 55.691277 24.270175
14389  0  1 44.257385 55.691274 27.125476
14390  0  1 44.257385 55.691274 29.980765
14391  0  1 44.257431 55.691277 32.836066
14392  0  1 44.257521 55.691285 35.691400
14393  0  1 44.257656 55.691300 38.546784
14394  0  1 44.257834 55.691325 41.402224
14395  0  1 44.258031 55.691356 44.257691
14396  0  1 44.258134 55.691386 47.113063
14397  0  1 44.258064 55.691403 49.968284
14398  0  1 44.257913 55.691404 52.823452
14399  0  1 44.257808 55.691396 55.678641
14400  0  1 47.113150  1.440179  1.427577
14401  0  1 47.113459  1.440116  4.282630
14402  0  1 47.113797  1.440089  7.137607
14403  0  1 47.113766  1.440099  9.992879
14404  0  1 47.113457  1.440130 12.848469
14405  0  1 47.113230  1.440157 15.704004
14406  0  1 47.113080  1.440179 18.559450
14407  0  1 47.112978  1.440197 21.414830
14408  0  1 47.112912  1.440210 24.270164
14409  0  1 47.112880  1.440217 27.125472
14410  0  1 47.112880  1.440217 29.980770
14411  0  1 47.112912  1.440210 32.836077
14412  0  1 47.112978  1.440197 35.691411
14413  0  1 47.113080  1.440179 38.546791
14414  0  1 47.113230  1.440157 41.402237
14415  0  1 47.113457  1.440130 44.257772
14416  0  1 47.113766  1.440099 47.113363
14417  0  1 47.113797  1.440089 49.968634
14418  0  1 47.113459  1.440116 52.823611
14419  0  1 47.113150  1.440179 55.678665
14420  0  1 47.113546  4.295090  1.427500
14421  0  1 47.113708  4.294992  4.282482
14422  0  1 47.113979  4.294931  7.137449
14423  0  1 47.113936  4.294992  9.992722
14424  0  1 47.113649  4.295101 12.848305
14425  0  1 47.113436  4.295187 15.703854
14426  0  1 47.113292  4.295253 18.559329
14427  0  1 47.113192  4.295302 21.414743
14428  0  1 47.113126  4.295334 24.270113
14429  0  1 47.113093  4.295351 27.125455
14430  0  1 47.113093  4.295351 29.980787
14431  0  1 47.113126  4.295334 32.836128
14432  0  1 47.113192  4.295302 35.691498
14433  0  1 47.113292  4.295253 38.546913
14434  0  1 47.113436  4.295187 41.402388
14435  0  1 47.113649  4.295101 44.257936
14436  0  1 47.113936  4.294992 47.113520
14437  0  1 47.113979  4.294931 49.968792
14438  0  1 47.113708  4.294992 52.823760
14439  0  1 47.113546  4.295090 55.678741
14440  0  1 47.113981  7.149951  1.427459
14441  0  1 47.114072  7.149867  4.282362
14442  0  1 47.114218  7.149760  7.137255
14443  0  1 47.114139  7.149888  9.992516
14444  0  1 47.113894  7.150054 12.848073
14445  0  1 47.113706  7.150186 15.703637
14446  0  1 47.113570  7.150288 18.559156
14447  0  1 47.113469  7.150365 21.414623
14448  0  1 47.113402  7.150417 24.270043
14449  0  1 47.113368  7.150443 27.125432
14450  0  1 47.113368  7.150443 29.980809
14451  0  1 47.113402  7.150417 32.836198
14452  0  1 47.113469  7.150365 35.691619
14453  0  1 47.113570  7.150288 38.547085
14454  0  1 47.113706  7.150186 41.402604
14455  0  1 47.113894  7.150054 44.258168
14456  0  1 47.114139  7.149888 47.113725
14457  0  1 47.114218  7.149760 49.968986
14458  0  1 47.114072  7.149867 52.823880
14459  0  1 47.113981  7.149951 55.678782
14460  0  1 47.114048 10.005148  1.427455
14461  0  1 47.114121 10.005075  4.282359
14462  0  1 47.114232 10.004964  7.137285
14463  0  1 47.114287 10.004909  9.992349
14464  0  1 47.114132 10.005063 12.847818
14465  0  1 47.113992 10.005204 15.703378
14466  0  1 47.113867 10.005329 18.558944
14467  0  1 47.113763 10.005432 21.414475
14468  0  1 47.113690 10.005505 24.269959
14469  0  1 47.113653 10.005543 27.125405
14470  0  1 47.113653 10.005543 29.980837
14471  0  1 47.113690 10.005505 32.836283
14472  0  1 47.113763 10.005432 35.691766
14473  0  1 47.113867 10.005329 38.547297
14474  0  1 47.113992 10.005204 41.402863
14475  0  1 47.114132 10.005063 44.258423
14476  0  1 47.114287 10.004909 47.113892
14477  0  1 47.114232 10.004964 49.968956
14478  0  1 47.114121 10.005075 52.823882
14479  0  1 47.114048 10.005148 55.678787
14480  0  1 47.113825 12.860717  1.427469
14481  0  1 47.113917 12.860635  4.282404
14482  0  1 47.114072 12.860489  7.137349
14483  0  1 47.114224 12.860336  9.992378
14484  0  1 47.114268 12.860282 12.847639
14485  0  1 47.114210 12.860342 15.703130
14486  0  1 47.114095 12.860461 18.558726
14487  0  1 47.113975 12.860590 21.414322
14488  0  1 47.113884 12.860691 24.269872
14489  0  1 47.113836 12.860745 27.125377
14490  0  1 47.113836 12.860745 29.980864
14491  0  1 47.113884 12.860691 32.836370
14492  0  1 47.113975 12.860590 35.691919
14493  0  1 47.114095 12.860461 38.547516
14494  0  1 47.114210 12.860342 41.403111
14495  0  1 47.114268 12.860282 44.258602
14496  0  1 47.114224 12.860336 47.113863
14497  0  1 47.114072 12.860489 49.968892
14498  0  1 47.113917 12.860635 52.823838
14499  0  1 47.113825 12.860717 55.678772
14500  0  1 47.113665 15.716287  1.427480
14501  0  1 47.113769 15.716210  4.282434
14502  0  1 47.113953 15.716065  7.137389
14503  0  1 47.114160 15.715884  9.992396
14504  0  1 47.114296 15.715734 12.847559
14505  0  1 47.114291 15.715688 15.702956
14506  0  1 47.114162 15.715771 18.558546
14507  0  1 47.113996 15.715917 21.414190
14508  0  1 47.113864 15.716053 24.269798
14509  0  1 47.113794 15.716131 27.125354
14510  0  1 47.113794 15.716131 29.980888
14511  0  1 47.113864 15.716053 32.836443
14512  0  1 47.113996 15.715917 35.692051
14513  0  1 47.114162 15.715771 38.547695
14514  0  1 47.114291 15.715688 41.403286
14515  0  1 47.114296 15.715734 44.258682
14516  0  1 47.114160 15.715884 47.113845
14517  0  1 47.113953 15.716065 49.968852
14518  0  1 47.113769 15.716210 52.823807
14519  0  1 47.113665 15.716287 55.678761
14520  0  1 47.113557 18.571822  1.427489
14521  0  1 47.113664 18.571763  4.282458
14522  0  1 47.113856 18.571648  7.137424
14523  0  1 47.114078 18.571494  9.992427
14524  0  1 47.114230 18.571341 12.847557
14525  0  1 47.114219 18.571249 15.702900
14526  0  1 47.114044 18.571270 18.558447
14527  0  1 47.113804 18.571404 21.414102
14528  0  1 47.113608 18.571564 24.269745
14529  0  1 47.113504 18.571665 27.125337
14530  0  1 47.113504 18.571665 29.980905
14531  0  1 47.113608 18.571564 32.836497
14532  0  1 47.113804 18.571404 35.692139
14533  0  1 47.114044 18.571270 38.547794
14534  0  1 47.114219 18.571249 41.403341
14535  0  1 47.114230 18.571341 44.258684
14536  0  1 47.114078 18.571494 47.113815
14537  0  1 47.113856 18.571648 49.968817
14538  0  1 47.113664 18.571763 52.823783
14539  0  1 47.113557 18.571822 55.678753
14540  0  1 47.113470 21.427333  1.427496
14541  0  1 47.113574 21.427296  4.282482
14542  0  1 47.113762 21.427224  7.137464
14543  0  1 47.113975 21.427124  9.992479
14544  0  1 47.114105 21.427015 12.847616
14545  0  1 47.114047 21.426930 15.702951
14546  0  1 47.113802 21.426906 18.558466
14547  0  1 47.113484 21.426970 21.414077
14548  0  1 47.113219 21.427100 24.269713
14549  0  1 47.113079 21.427200 27.125323
14550  0  1 47.113079 21.427200 29.980918
14551  0  1 47.113219 21.427100 32.836529
14552  0  1 47.113484 21.426970 35.692165
14553  0  1 47.113802 21.426906 38.547775
14554  0  1 47.114047 21.426930 41.403290
14555  0  1 47.114105 21.427015 44.258625
14556  0  1 47.113975 21.427124 47.113762
14557  0  1 47.113762 21.427224 49.968778
14558  0  1 47.113574 21.427296 52.823759
14559  0  1 47.113470 21.427333 55.678745
14560  0  1 47.113393 24.282825  1.427504
14561  0  1 47.113492 24.282811  4.282507
14562  0  1 47.113667 24.282782  7.137508
14563  0  1 47.113859 24.282739  9.992548
14564  0  1 47.113955 24.282685 12.847711
14565  0  1 47.113846 24.282627 15.703066
14566  0  1 47.113537 24.282575 18.558577
14567  0  1 47.113155 24.282549 21.414145
14568  0  1 47.112840 24.282567 24.269722
14569  0  1 47.112671 24.282610 27.125319
14570  0  1 47.112671 24.282610 29.980922
14571  0  1 47.112840 24.282567 32.836519
14572  0  1 47.113155 24.282549 35.692096
14573  0  1 47.113537 24.282575 38.547664
14574  0  1 47.113846 24.282627 41.403175
14575  0  1 47.113955 24.282685 44.258531
14576  0  1 47.113859 24.282739 47.113694
14577  0  1 47.113667 24.282782 49.968733
14578  0  1 47.113492 24.282811 52.823734
14579  0  1 47.113393 24.282825 55.678737
14580  0  1 47.113326 27.138301  1.427512
14581  0  1 47.113417 27.138305  4.282532
14582  0  1 47.113577 27.138313  7.137556
14583  0  1 47.113745 27.138319  9.992623
14584  0  1 47.113809 27.138313 12.847819
14585  0  1 47.113663 27.138276 15.703204
14586  0  1 47.113317 27.138198 18.558731
14587  0  1 47.112904 27.138085 21.414285
14588  0  1 47.112566 27.137969 24.269813
14589  0  1 47.112381 27.137893 27.125344
14590  0  1 47.112381 27.137893 29.980898
14591  0  1 47.112566 27.137969 32.836429
14592  0  1 47.112904 27.138085 35.691956
14593  0  1 47.113317 27.138198 38.547510
14594  0  1 47.113663 27.138276 41.403037
14595  0  1 47.113809 27.138313 44.258423
14596  0  1 47.113745 27.138319 47.113618
14597  0  1 47.113577 27.138313 49.968686
14598  0  1 47.113417 27.138305 52.823709
14599  0  1 47.113326 27.138301 55.678729
14600  0  1 47.113270 29.993762  1.427520
14601  0  1 47.113353 29.993782  4.282557
14602  0  1 47.113496 29.993818  7.137604
14603  0  1 47.113639 29.993860  9.992701
14604  0  1 47.113678 29.993884 12.847929
14605  0  1 47.113516 29.993854 15.703342
14606  0  1 47.113167 29.993744 18.558889
14607  0  1 47.112760 29.993555 21.414451
14608  0  1 47.112428 29.993330 24.269957
14609  0  1 47.112247 29.993161 27.125408
14610  0  1 47.112247 29.993161 29.980833
14611  0  1 47.112428 29.993330 32.836285
14612  0  1 47.112760 29.993555 35.691790
14613  0  1 47.113167 29.993744 38.547353
14614  0  1 47.113516 29.993854 41.402899
14615  0  1 47.113678 29.993884 44.258313
14616  0  1 47.113639 29.993860 47.113540
14617  0  1 47.113496 29.993818 49.968638
14618  0  1 47.113353 29.993782 52.823684
14619  0  1 47.113270 29.993762 55.678721
14620  0  1 47.113229 32.849212  1.427528
14621  0  1 47.113303 32.849242  4.282583
14622  0  1 47.113428 32.849298  7.137653
14623  0  1 47.113546 32.849361  9.992780
14624  0  1 47.113565 32.849399 12.848037
14625  0  1 47.113404 32.849362 15.703471
14626  0  1 47.113082 32.849215 18.559031
14627  0  1 47.112713 32.848968 21.414600
14628  0  1 47.112417 32.848692 24.270086
14629  0  1 47.112263 32.848510 27.125459
14630  0  1 47.112263 32.848510 29.980782
14631  0  1 47.112417 32.848692 32.836155
14632  0  1 47.112713 32.848968 35.691641
14633  0  1 47.113082 32.849215 38.547210
14634  0  1 47.113404 32.849362 41.402770
14635  0  1 47.113565 32.849399 44.258204
14636  0  1 47.113546 32.849361 47.113461
14637  0  1 47.113428 32.849298 49.968588
14638  0  1 47.113303 32.849242 52.823658
14639  0  1 47.113229 32.849212 55.678714
14640  0  1 47.113208 35.704654  1.427535
14641  0  1 47.113272 35.704691  4.282609
14642  0  1 47.113377 35.704757  7.137703
14643  0  1 47.113470 35.704829  9.992859
14644  0  1 47.113472 35.704863 12.848143
14645  0  1 47.113321 35.704805 15.703591
14646  0  1 47.113040 35.704623 18.559151
14647  0  1 47.112732 35.704354 21.414706
14648  0  1 47.112497 35.704096 24.270153
14649  0  1 47.112378 35.703942 27.125481
14650  0  1 47.112378 35.703942 29.980760
14651  0  1 47.112497 35.704096 32.836088
14652  0  1 47.112732 35.704354 35.691535
14653  0  1 47.113040 35.704623 38.547090
14654  0  1 47.113321 35.704805 41.402650
14655  0  1 47.113472 35.704863 44.258098
14656  0  1 47.113470 35.704829 47.113382
14657  0  1 47.113377 35.704757 49.968539
14658  0  1 47.113272 35.704691 52.823633
14659  0  1 47.113208 35.704654 55.678706
14660  0  1 47.113215 38.560095  1.427543
14661  0  1 47.113269 38.560135  4.282632
14662  0  1 47.113353 38.560203  7.137748
14663  0  1 47.113419 38.560269  9.992931
14664  0  1 47.113398 38.560281 12.848241
14665  0  1 47.113253 38.560187 15.703700
14666  0  1 47.113015 38.559981 18.559248
14667  0  1 47.112774 38.559729 21.414765
14668  0  1 47.112597 38.559515 24.270176
14669  0  1 47.112508 38.559396 27.125485
14670  0  1 47.112508 38.559396 29.980756
14671  0  1 47.112597 38.559515 32.836066
14672  0  1 47.112774 38.559729 35.691476
14673  0  1 47.113015 38.559981 38.546993
14674  0  1 47.113253 38.560187 41.402541
14675  0  1 47.113398 38.560281 44.258000
14676  0  1 47.113419 38.560269 47.113310
14677  0  1 47.113353 38.560203 49.968493
14678  0  1 47.113269 38.560135 52.823609
14679  0  1 47.113215 38.560095 55.678699
14680  0  1 47.113272 41.415549  1.427547
14681  0  1 47.113316 41.415587  4.282646
14682  0  1 47.113377 41.415647  7.137775
14683  0  1 47.113408 41.415690  9.992979
14684  0  1 47.113350 41.415656 12.848317
14685  0  1 47.113193 41.415509 15.703795
14686  0  1 47.112985 41.415289 18.559326
14687  0  1 47.112793 41.415067 21.414805
14688  0  1 47.112657 41.414899 24.270186
14689  0  1 47.112590 41.414811 27.125486
14690  0  1 47.112590 41.414811 29.980755
14691  0  1 47.112657 41.414899 32.836055
14692  0  1 47.112793 41.415067 35.691436
14693  0  1 47.112985 41.415289 38.546915
14694  0  1 47.113193 41.415509 41.402446
14695  0  1 47.113350 41.415656 44.257924
14696  0  1 47.113408 41.415690 47.113263
14697  0  1 47.113377 41.415647 49.968467
14698  0  1 47.113316 41.415587 52.823595
14699  0  1 47.113272 41.415549 55.678695
14700  0  1 47.113420 44.271038  1.427543
14701  0  1 47.113451 44.271069  4.282633
14702  0  1 47.113486 44.271110  7.137755
14703  0  1 47.113470 44.271107  9.992965
14704  0  1 47.113336 44.270981 12.848363
14705  0  1 47.113141 44.270767 15.703884
14706  0  1 47.112943 44.270546 18.559401
14707  0  1 47.112781 44.270361 21.414843
14708  0  1 47.112672 44.270233 24.270198
14709  0  1 47.112618 44.270169 27.125488
14710  0  1 47.112618 44.270169 29.980754
14711  0  1 47.112672 44.270233 32.836043
14712  0  1 47.112781 44.270361 35.691398
14713  0  1 47.112943 44.270546 38.546841
14714  0  1 47.113141 44.270767 41.402357
14715  0  1 47.113336 44.270981 44.257878
14716  0  1 47.113470 44.271107 47.113276
14717  0  1 47.113486 44.271110 49.968487
14718  0  1 47.113451 44.271069 52.823608
14719  0  1 47.113420 44.271038 55.678698
14720  0  1 47.113673 47.126539  1.427526
14721  0  1 47.113694 47.126560  4.282579
14722  0  1 47.113705 47.126571  7.137658
14723  0  1 47.113627 47.126493  9.992862
14724  0  1 47.113339 47.126205 12.848414
14725  0  1 47.113094 47.125960 15.703975
14726  0  1 47.112902 47.125768 18.559469
14727  0  1 47.112760 47.125626 21.414878
14728  0  1 47.112668 47.125534 24.270210
14729  0  1 47.112623 47.125489 27.125490
14730  0  1 47.112623 47.125489 29.980752
14731  0  1 47.112668 47.125534 32.836032
14732  0  1 47.112760 47.125626 35.691363
14733  0  1 47.112902 47.125768 38.546772
14734  0  1 47.113094 47.125960 41.402266
14735  0  1 47.113339 47.126205 44.257827
14736  0  1 47.113627 47.126493 47.113379
14737  0  1 47.113705 47.126571 49.968583
14738  0  1 47.113694 47.126560 52.823662
14739  0  1 47.113673 47.126539 55.678715
14740  0  1 47.113679 49.981687  1.427519
14741  0  1 47.113733 49.981730  4.282541
14742  0  1 47.113808 49.981762  7.137549
14743  0  1 47.113642 49.981545  9.992899
14744  0  1 47.113311 49.981297 12.848501
14745  0  1 47.113057 49.981106 15.704056
14746  0  1 47.112876 49.980967 18.559520
14747  0  1 47.112749 49.980871 21.414901
14748  0  1 47.112669 49.980810 24.270216
14749  0  1 47.112630 49.980782 27.125491
14750  0  1 47.112630 49.980782 29.980751
14751  0  1 47.112669 49.980810 32.836025
14752  0  1 47.112749 49.980871 35.691340
14753  0  1 47.112876 49.980967 38.546721
14754  0  1 47.113057 49.981106 41.402185
14755  0  1 47.113311 49.981297 44.257741
14756  0  1 47.113642 49.981545 47.113342
14757  0  1 47.113808 49.981762 49.968693
14758  0  1 47.113733 49.981730 52.823700
14759  0  1 47.113679 49.981687 55.678722
14760  0  1 47.113350 52.836521  1.427540
14761  0  1 47.113490 52.836591  4.282598
14762  0  1 47.113723 52.836606  7.137633
14763  0  1 47.113632 52.836493  9.992954
14764  0  1 47.113299 52.836341 12.848558
14765  0  1 47.113051 52.836226 15.704098
14766  0  1 47.112882 52.836146 18.559540
14767  0  1 47.112768 52.836092 21.414905
14768  0  1 47.112696 52.836060 24.270213
14769  0  1 47.112661 52.836044 27.125489
14770  0  1 47.112661 52.836044 29.980753
14771  0  1 47.112696 52.836060 32.836028
14772  0  1 47.112768 52.836092 35.691337
14773  0  1 47.112882 52.836146 38.546701
14774  0  1 47.113051 52.836226 41.402143
14775  0  1 47.113299 52.836341 44.257683
14776  0  1 47.113632 52.836493 47.113287
14777  0  1 47.113723 52.836606 49.968608
14778  0  1 47.113490 52.836591 52.823643
14779  0  1 47.113350 52.836521 55.678701
14780  0  1 47.113082 55.691420  1.427591
14781  0  1 47.113385 55.691465  4.282670
14782  0  1 47.113710 55.691463  7.137670
14783  0  1 47.113664 55.691422  9.992956
14784  0  1 47.113341 55.691367 12.848553
14785  0  1 47.113103 55.691326 15.704084
14786  0  1 47.112945 55.691300 18.559519
14787  0  1 47.112839 55.691284 21.414882
14788  0  1 47.112771 55.691276 24.270197
14789  0  1 47.112738 55.691272 27.125483
14790  0  1 47.112738 55.691272 29.980759
14791  0  1 47.112771 55.691276 32.836044
14792  0  1 47.112839 55.691284 35.691359
14793  0  1 47.112945 55.691300 38.546722
14794  0  1 47.113103 55.691326 41.402157
14795  0  1 47.113341 55.691367 44.257688
14796  0  1 47.113664 55.691422 47.113285
14797  0  1 47.113710 55.691463 49.968572
14798  0  1 47.113385 55.691465 52.823571
14799  0  1 47.113082 55.691420 55.678651
14800  0  1 49.968268  1.440322  1.427687
14801  0  1 49.969418  1.439978  4.282087
14802  0  1 49.969768  1.440023  7.136875
14803  0  1 49.968965  1.440131  9.992930
14804  0  1 49.968603  1.440185 12.848638
14805  0  1 49.968434  1.440213 15.704137
14806  0  1 49.968333  1.440230 18.559538
14807  0  1 49.968267  1.440243 21.414883
14808  0  1 49.968225  1.440252 24.270192
14809  0  1 49.968205  1.440256 27.125480
14810  0  1 49.968205  1.440256 29.980761
14811  0  1 49.968225  1.440252 32.836049
14812  0  1 49.968267  1.440243 35.691358
14813  0  1 49.968333  1.440230 38.546703
14814  0  1 49.968434  1.440213 41.402104
14815  0  1 49.968603  1.440185 44.257603
14816  0  1 49.968965  1.440131 47.113311
14817  0  1 49.969768  1.440023 49.969367
14818  0  1 49.969418  1.439978 52.824154
14819  0  1 49.968268  1.440322 55.678555
14820  0  1 49.969513  4.294571  1.427329
14821  0  1 49.969877  4.294301  4.281772
14822  0  1 49.969937  4.294638  7.136739
14823  0  1 49.969151  4.294997  9.992767
14824  0  1 49.968791  4.295190 12.848486
14825  0  1 49.968621  4.295288 15.704010
14826  0  1 49.968521  4.295348 18.559441
14827  0  1 49.968455  4.295388 21.414816
14828  0  1 49.968413  4.295414 24.270153
14829  0  1 49.968392  4.295426 27.125467
14830  0  1 49.968392  4.295426 29.980774
14831  0  1 49.968413  4.295414 32.836088
14832  0  1 49.968455  4.295388 35.691425
14833  0  1 49.968521  4.295348 38.546800
14834  0  1 49.968621  4.295288 41.402231
14835  0  1 49.968791  4.295190 44.257756
14836  0  1 49.969151  4.294997 47.113475
14837  0  1 49.969937  4.294638 49.969502
14838  0  1 49.969877  4.294301 52.824469
14839  0  1 49.969513  4.294571 55.678912
14840  0  1 49.969960  7.149236  1.427364
14841  0  1 49.970031  7.149165  4.282057
14842  0  1 49.970243  7.148952  7.136450
14843  0  1 49.969352  7.149844  9.992536
14844  0  1 49.969000  7.150196 12.848270
14845  0  1 49.968833  7.150363 15.703831
14846  0  1 49.968731  7.150465 18.559307
14847  0  1 49.968662  7.150534 21.414725
14848  0  1 49.968617  7.150578 24.270101
14849  0  1 49.968595  7.150600 27.125451
14850  0  1 49.968595  7.150600 29.980791
14851  0  1 49.968617  7.150578 32.836140
14852  0  1 49.968662  7.150534 35.691516
14853  0  1 49.968731  7.150465 38.546934
14854  0  1 49.968833  7.150363 41.402410
14855  0  1 49.969000  7.150196 44.257971
14856  0  1 49.969352  7.149844 47.113705
14857  0  1 49.970243  7.148952 49.969792
14858  0  1 49.970031  7.149165 52.824184
14859  0  1 49.969960  7.149236 55.678878
14860  0  1 49.969244 10.005214  1.427459
14861  0  1 49.969329 10.005123  4.282362
14862  0  1 49.969436 10.004978  7.137255
14863  0  1 49.969307 10.005056  9.992516
14864  0  1 49.969141 10.005302 12.848073
14865  0  1 49.969009 10.005489 15.703637
14866  0  1 49.968907 10.005626 18.559156
14867  0  1 49.968830 10.005726 21.414623
14868  0  1 49.968778 10.005793 24.270043
14869  0  1 49.968752 10.005827 27.125432
14870  0  1 49.968752 10.005827 29.980809
14871  0  1 49.968778 10.005793 32.836198
14872  0  1 49.968830 10.005726 35.691619
14873  0  1 49.968907 10.005626 38.547085
14874  0  1 49.969009 10.005489 41.402604
14875  0  1 49.969141 10.005302 44.258168
14876  0  1 49.969307 10.005056 47.113725
14877  0  1 49.969436 10.004978 49.968986
14878  0  1 49.969329 10.005123 52.823880
14879  0  1 49.969244 10.005214 55.678782
14880  0  1 49.968955 12.860899  1.427501
14881  0  1 49.969036 12.860818  4.282500
14882  0  1 49.969152 12.860683  7.137520
14883  0  1 49.969212 12.860581  9.992654
14884  0  1 49.969186 12.860608 12.847991
14885  0  1 49.969098 12.860736 15.703488
14886  0  1 49.968992 12.860881 18.559021
14887  0  1 49.968896 12.861009 21.414526
14888  0  1 49.968828 12.861103 24.269988
14889  0  1 49.968793 12.861153 27.125414
14890  0  1 49.968793 12.861153 29.980827
14891  0  1 49.968828 12.861103 32.836253
14892  0  1 49.968896 12.861009 35.691715
14893  0  1 49.968992 12.860881 38.547221
14894  0  1 49.969098 12.860736 41.402753
14895  0  1 49.969186 12.860608 44.258250
14896  0  1 49.969212 12.860581 47.113587
14897  0  1 49.969152 12.860683 49.968721
14898  0  1 49.969036 12.860818 52.823742
14899  0  1 49.968955 12.860899 55.678741
14900  0  1 49.968834 15.716433  1.427516
14901  0  1 49.968911 15.716370  4.282550
14902  0  1 49.969030 15.716262  7.137609
14903  0  1 49.969127 15.716149  9.992741
14904  0  1 49.969147 15.716095 12.848006
14905  0  1 49.969078 15.716137 15.703422
14906  0  1 49.968955 15.716255 18.558932
14907  0  1 49.968829 15.716394 21.414454
14908  0  1 49.968734 15.716510 24.269944
14909  0  1 49.968684 15.716575 27.125400
14910  0  1 49.968684 15.716575 29.980841
14911  0  1 49.968734 15.716510 32.836297
14912  0  1 49.968829 15.716394 35.691787
14913  0  1 49.968955 15.716255 38.547309
14914  0  1 49.969078 15.716137 41.402819
14915  0  1 49.969147 15.716095 44.258235
14916  0  1 49.969127 15.716149 47.113500
14917  0  1 49.969030 15.716262 49.968632
14918  0  1 49.968911 15.716370 52.823691
14919  0  1 49.968834 15.716433 55.678726
14920  0  1 49.968757 18.571921  1.427523
14921  0  1 49.968830 18.571880  4.282574
14922  0  1 49.968944 18.571805  7.137653
14923  0  1 49.969040 18.571719  9.992798
14924  0  1 49.969056 18.571657 12.848054
14925  0  1 49.968971 18.571655 15.703434
14926  0  1 49.968817 18.571726 18.558907
14927  0  1 49.968653 18.571845 21.414417
14928  0  1 49.968526 18.571964 24.269916
14929  0  1 49.968460 18.572035 27.125390
14930  0  1 49.968460 18.572035 29.980852
14931  0  1 49.968526 18.571963 32.836326
14932  0  1 49.968653 18.571845 35.691824
14933  0  1 49.968817 18.571726 38.547334
14934  0  1 49.968971 18.571655 41.402807
14935  0  1 49.969056 18.571657 44.258187
14936  0  1 49.969040 18.571719 47.113443
14937  0  1 49.968944 18.571805 49.968589
14938  0  1 49.968830 18.571880 52.823667
14939  0  1 49.968757 18.571921 55.678718
14940  0  1 49.968688 21.427396  1.427529
14941  0  1 49.968757 21.427373  4.282593
14942  0  1 49.968863 21.427331  7.137687
14943  0  1 49.968945 21.427279  9.992851
14944  0  1 49.968939 21.427236 12.848120
14945  0  1 49.968822 21.427220 15.703496
14946  0  1 49.968631 21.427245 18.558942
14947  0  1 49.968432 21.427312 21.414420
14948  0  1 49.968277 21.427398 24.269905
14949  0  1 49.968195 21.427458 27.125384
14950  0  1 49.968195 21.427458 29.980858
14951  0  1 49.968277 21.427398 32.836336
14952  0  1 49.968432 21.427312 35.691821
14953  0  1 49.968631 21.427245 38.547299
14954  0  1 49.968822 21.427220 41.402746
14955  0  1 49.968939 21.427236 44.258121
14956  0  1 49.968945 21.427279 47.113390
14957  0  1 49.968863 21.427331 49.968554
14958  0  1 49.968757 21.427373 52.823649
14959  0  1 49.968688 21.427396 55.678713
14960  0  1 49.968622 24.282863  1.427535
14961  0  1 49.968686 24.282855  4.282612
14962  0  1 49.968781 24.282840  7.137723
14963  0  1 49.968847 24.282820  9.992907
14964  0  1 49.968817 24.282798 12.848196
14965  0  1 49.968670 24.282777 15.703582
14966  0  1 49.968449 24.282764 18.559020
14967  0  1 49.968225 24.282765 21.414469
14968  0  1 49.968052 24.282782 24.269921
14969  0  1 49.967961 24.282802 27.125386
14970  0  1 49.967961 24.282802 29.980856
14971  0  1 49.968052 24.282782 32.836320
14972  0  1 49.968225 24.282765 35.691772
14973  0  1 49.968449 24.282764 38.547221
14974  0  1 49.968670 24.282777 41.402659
14975  0  1 49.968817 24.282798 44.258045
14976  0  1 49.968846 24.282820 47.113334
14977  0  1 49.968781 24.282840 49.968518
14978  0  1 49.968686 24.282855 52.823630
14979  0  1 49.968622 24.282863 55.678707
14980  0  1 49.968557 27.138320  1.427541
14981  0  1 49.968616 27.138324  4.282632
14982  0  1 49.968701 27.138331  7.137760
14983  0  1 49.968751 27.138334  9.992964
14984  0  1 49.968703 27.138326 12.848274
14985  0  1 49.968539 27.138298 15.703675
14986  0  1 49.968303 27.138249 18.559116
14987  0  1 49.968068 27.138186 21.414551
14988  0  1 49.967889 27.138123 24.269974
14989  0  1 49.967794 27.138084 27.125402
14990  0  1 49.967794 27.138084 29.980839
14991  0  1 49.967889 27.138123 32.836268
14992  0  1 49.968068 27.138186 35.691690
14993  0  1 49.968303 27.138249 38.547125
14994  0  1 49.968539 27.138298 41.402566
14995  0  1 49.968703 27.138326 44.257968
14996  0  1 49.968751 27.138334 47.113277
14997  0  1 49.968701 27.138331 49.968481
14998  0  1 49.968616 27.138324 52.823609
14999  0  1 49.968557 27.138320 55.678700
15000  0  1 49.968498 29.993766  1.427548
15001  0  1 49.968551 29.993779  4.282654
15002  0  1 49.968625 29.993801  7.137799
15003  0  1 49.968662 29.993820  9.993021
15004  0  1 49.968605 29.993817 12.848347
15005  0  1 49.968438 29.993778 15.703761
15006  0  1 49.968204 29.993694 18.559210
15007  0  1 49.967973 29.993573 21.414645
15008  0  1 49.967799 29.993445 24.270049
15009  0  1 49.967707 29.993358 27.125433
15010  0  1 49.967707 29.993358 29.980809
15011  0  1 49.967799 29.993445 32.836192
15012  0  1 49.967973 29.993573 35.691597
15013  0  1 49.968204 29.993694 38.547031
15014  0  1 49.968438 29.993778 41.402480
15015  0  1 49.968605 29.993817 44.257895
15016  0  1 49.968662 29.993820 47.113220
15017  0  1 49.968625 29.993801 49.968442
15018  0  1 49.968551 29.993779 52.823587
15019  0  1 49.968498 29.993766 55.678693
15020  0  1 49.968446 32.849201  1.427556
15021  0  1 49.968493 32.849221  4.282677
15022  0  1 49.968556 32.849253  7.137839
15023  0  1 49.968584 32.849280  9.993076
15024  0  1 49.968525 32.849277 12.848413
15025  0  1 49.968366 32.849221 15.703834
15026  0  1 49.968149 32.849103 18.559290
15027  0  1 49.967937 32.848938 21.414728
15028  0  1 49.967778 32.848773 24.270118
15029  0  1 49.967697 32.848668 27.125460
15030  0  1 49.967697 32.848668 29.980781
15031  0  1 49.967778 32.848773 32.836123
15032  0  1 49.967937 32.848938 35.691514
15033  0  1 49.968149 32.849103 38.546951
15034  0  1 49.968366 32.849221 41.402407
15035  0  1 49.968525 32.849277 44.257829
15036  0  1 49.968584 32.849280 47.113165
15037  0  1 49.968556 32.849253 49.968402
15038  0  1 49.968493 32.849221 52.823564
15039  0  1 49.968446 32.849201 55.678686
15040  0  1 49.968407 35.704625  1.427563
15041  0  1 49.968447 35.704650  4.282701
15042  0  1 49.968501 35.704689  7.137877
15043  0  1 49.968520 35.704720  9.993126
15044  0  1 49.968462 35.704711 12.848468
15045  0  1 49.968318 35.704635 15.703891
15046  0  1 49.968127 35.704487 18.559350
15047  0  1 49.967943 35.704298 21.414785
15048  0  1 49.967810 35.704126 24.270160
15049  0  1 49.967742 35.704025 27.125475
15050  0  1 49.967742 35.704025 29.980766
15051  0  1 49.967810 35.704126 32.836081
15052  0  1 49.967943 35.704298 35.691456
15053  0  1 49.968127 35.704487 38.546892
15054  0  1 49.968318 35.704635 41.402350
15055  0  1 49.968462 35.704711 44.257774
15056  0  1 49.968520 35.704720 47.113116
15057  0  1 49.968501 35.704689 49.968364
15058  0  1 49.968447 35.704650 52.823540
15059  0  1 49.968407 35.704625 55.678678
15060  0  1 49.968387 38.560041  1.427570
15061  0  1 49.968422 38.560071  4.282720
15062  0  1 49.968467 38.560116  7.137907
15063  0  1 49.968477 38.560149  9.993161
15064  0  1 49.968419 38.560128 12.848504
15065  0  1 49.968289 38.560026 15.703930
15066  0  1 49.968124 38.559853 18.559389
15067  0  1 49.967973 38.559660 21.414818
15068  0  1 49.967866 38.559500 24.270179
15069  0  1 49.967812 38.559412 27.125481
15070  0  1 49.967812 38.559412 29.980760
15071  0  1 49.967866 38.559500 32.836062
15072  0  1 49.967973 38.559660 35.691424
15073  0  1 49.968124 38.559853 38.546852
15074  0  1 49.968289 38.560026 41.402311
15075  0  1 49.968419 38.560128 44.257737
15076  0  1 49.968477 38.560149 47.113081
15077  0  1 49.968467 38.560116 49.968334
15078  0  1 49.968422 38.560071 52.823521
15079  0  1 49.968387 38.560041 55.678671
15080  0  1 49.968405 41.415460  1.427573
15081  0  1 49.968437 41.415496  4.282725
15082  0  1 49.968474 41.415550  7.137909
15083  0  1 49.968471 41.415581  9.993160
15084  0  1 49.968400 41.415532 12.848511
15085  0  1 49.968271 41.415388 15.703955
15086  0  1 49.968124 41.415192 18.559422
15087  0  1 49.967999 41.415008 21.414841
15088  0  1 49.967913 41.414871 24.270190
15089  0  1 49.967871 41.414799 27.125484
15090  0  1 49.967871 41.414799 29.980757
15091  0  1 49.967913 41.414871 32.836051
15092  0  1 49.967999 41.415008 35.691400
15093  0  1 49.968124 41.415192 38.546820
15094  0  1 49.968271 41.415388 41.402287
15095  0  1 49.968400 41.415532 44.257730
15096  0  1 49.968471 41.415581 47.113082
15097  0  1 49.968474 41.415550 49.968332
15098  0  1 49.968437 41.415496 52.823516
15099  0  1 49.968405 41.415460 55.678669
15100  0  1 49.968505 44.270922  1.427562
15101  0  1 49.968541 44.270968  4.282688
15102  0  1 49.968572 44.271033  7.137835
15103  0  1 49.968529 44.271040  9.993082
15104  0  1 49.968409 44.270908 12.848488
15105  0  1 49.968256 44.270693 15.703989
15106  0  1 49.968115 44.270489 18.559465
15107  0  1 49.968007 44.270327 21.414869
15108  0  1 49.967937 44.270218 24.270203
15109  0  1 49.967903 44.270163 27.125487
15110  0  1 49.967903 44.270163 29.980754
15111  0  1 49.967937 44.270218 32.836039
15112  0  1 49.968007 44.270327 35.691372
15113  0  1 49.968115 44.270489 38.546777
15114  0  1 49.968256 44.270693 41.402252
15115  0  1 49.968409 44.270908 44.257754
15116  0  1 49.968529 44.271040 47.113159
15117  0  1 49.968572 44.271033 49.968406
15118  0  1 49.968541 44.270968 52.823554
15119  0  1 49.968505 44.270922 55.678679
15120  0  1 49.968821 47.126545  1.427519
15121  0  1 49.968864 47.126599  4.282541
15122  0  1 49.968896 47.126674  7.137549
15123  0  1 49.968679 47.126508  9.992899
15124  0  1 49.968431 47.126177 12.848501
15125  0  1 49.968240 47.125923 15.704056
15126  0  1 49.968101 47.125742 18.559520
15127  0  1 49.968005 47.125615 21.414901
15128  0  1 49.967944 47.125535 24.270216
15129  0  1 49.967916 47.125496 27.125491
15130  0  1 49.967916 47.125496 29.980751
15131  0  1 49.967944 47.125535 32.836025
15132  0  1 49.968005 47.125615 35.691340
15133  0  1 49.968101 47.125742 38.546721
15134  0  1 49.968240 47.125923 41.402185
15135  0  1 49.968431 47.126177 44.257741
15136  0  1 49.968679 47.126508 47.113342
15137  0  1 49.968896 47.126674 49.968693
15138  0  1 49.968864 47.126599 52.823700
15139  0  1 49.968821 47.126545 55.678722
15140  0  1 49.969611 49.982477  1.427414
15141  0  1 49.969650 49.982516  4.282206
15142  0  1 49.969807 49.982673  7.136685
15143  0  1 49.968852 49.981718  9.992831
15144  0  1 49.968441 49.981307 12.848590
15145  0  1 49.968229 49.981095 15.704139
15146  0  1 49.968097 49.980963 18.559572
15147  0  1 49.968011 49.980877 21.414926
15148  0  1 49.967958 49.980824 24.270226
15149  0  1 49.967933 49.980799 27.125493
15150  0  1 49.967933 49.980799 29.980748
15151  0  1 49.967958 49.980824 32.836015
15152  0  1 49.968011 49.980877 35.691315
15153  0  1 49.968097 49.980963 38.546669
15154  0  1 49.968229 49.981095 41.402102
15155  0  1 49.968441 49.981307 44.257651
15156  0  1 49.968852 49.981718 47.113410
15157  0  1 49.969807 49.982673 49.969556
15158  0  1 49.969650 49.982516 52.824035
15159  0  1 49.969611 49.982477 55.678827
15160  0  1 49.969283 52.837115  1.427363
15161  0  1 49.969628 52.837363  4.281870
15162  0  1 49.969655 52.836990  7.136889
15163  0  1 49.968833 52.836589  9.992950
15164  0  1 49.968439 52.836360 12.848681
15165  0  1 49.968242 52.836236 15.704196
15166  0  1 49.968123 52.836160 18.559600
15167  0  1 49.968047 52.836111 21.414936
15168  0  1 49.967999 52.836082 24.270228
15169  0  1 49.967976 52.836069 27.125493
15170  0  1 49.967976 52.836069 29.980749
15171  0  1 49.967999 52.836082 32.836014
15172  0  1 49.968047 52.836111 35.691305
15173  0  1 49.968123 52.836160 38.546642
15174  0  1 49.968242 52.836236 41.402046
15175  0  1 49.968439 52.836360 44.257561
15176  0  1 49.968833 52.836589 47.113291
15177  0  1 49.969655 52.836990 49.969352
15178  0  1 49.969628 52.837363 52.824371
15179  0  1 49.969283 52.837115 55.678878
15180  0  1 49.968188 55.691353  1.427699
15181  0  1 49.969332 55.691684  4.282121
15182  0  1 49.969671 55.691613  7.136926
15183  0  1 49.968856 55.691477  9.992992
15184  0  1 49.968483 55.691399 12.848704
15185  0  1 49.968305 55.691355 15.704199
15186  0  1 49.968199 55.691329 18.559591
15187  0  1 49.968129 55.691314 21.414923
15188  0  1 49.968085 55.691305 24.270217
15189  0  1 49.968064 55.691301 27.125489
15190  0  1 49.968064 55.691301 29.980753
15191  0  1 49.968085 55.691305 32.836024
15192  0  1 49.968129 55.691314 35.691318
15193  0  1 49.968199 55.691329 38.546651
15194  0  1 49.968305 55.691355 41.402043
15195  0  1 49.968483 55.691399 44.257538
15196  0  1 49.968856 55.691477 47.113249
15197  0  1 49.969671 55.691613 49.969316
15198  0  1 49.969332 55.691684 52.824120
15199  0  1 49.968188 55.691353 55.678542
15200  0  1 52.823779  1.441861  1.429168
15201  0  1 52.827325  1.439893  4.279243
15202  0  1 52.824441  1.440046  7.137281
15203  0  1 52.823852  1.440229  9.993332
15204  0  1 52.823685  1.440286 12.848863
15205  0  1 52.823604  1.440311 15.704266
15206  0  1 52.823552  1.440326 18.559615
15207  0  1 52.823517  1.440336 21.414928
15208  0  1 52.823495  1.440343 24.270216
15209  0  1 52.823484  1.440346 27.125488
15210  0  1 52.823484  1.440346 29.980754
15211  0  1 52.823495  1.440343 32.836025
15212  0  1 52.823517  1.440336 35.691313
15213  0  1 52.823552  1.440326 38.546626
15214  0  1 52.823604  1.440311 41.401975
15215  0  1 52.823685  1.440286 44.257379
15216  0  1 52.823852  1.440229 47.112910
15217  0  1 52.824441  1.440046 49.968960
15218  0  1 52.827325  1.439893 52.826998
15219  0  1 52.823779  1.441861 55.677073
15220  0  1 52.827424  4.291771  1.427186
15221  0  1 52.830285  4.288911  4.276342
15222  0  1 52.824809  4.294386  7.136865
15223  0  1 52.824051  4.295144  9.993113
15224  0  1 52.823850  4.295345 12.848714
15225  0  1 52.823759  4.295436 15.704163
15226  0  1 52.823705  4.295491 18.559543
15227  0  1 52.823669  4.295527 21.414881
15228  0  1 52.823646  4.295550 24.270189
15229  0  1 52.823635  4.295561 27.125479
15230  0  1 52.823635  4.295561 29.980762
15231  0  1 52.823646  4.295550 32.836052
15232  0  1 52.823669  4.295527 35.691360
15233  0  1 52.823705  4.295491 38.546698
15234  0  1 52.823759  4.295436 41.402079
15235  0  1 52.823850  4.295345 44.257527
15236  0  1 52.824051  4.295144 47.113129
15237  0  1 52.824809  4.294386 49.969376
15238  0  1 52.830285  4.288911 52.829900
15239  0  1 52.827424  4.291771 55.679056
15240  0  1 52.824624  7.149683  1.427329
15241  0  1 52.824895  7.149318  4.281772
15242  0  1 52.824558  7.149259  7.136739
15243  0  1 52.824198  7.150044  9.992767
15244  0  1 52.824006  7.150404 12.848486
15245  0  1 52.823908  7.150574 15.704010
15246  0  1 52.823848  7.150674 18.559441
15247  0  1 52.823808  7.150740 21.414816
15248  0  1 52.823782  7.150782 24.270153
15249  0  1 52.823769  7.150803 27.125467
15250  0  1 52.823769  7.150803 29.980774
15251  0  1 52.823782  7.150782 32.836088
15252  0  1 52.823808  7.150740 35.691425
15253  0  1 52.823848  7.150674 38.546800
15254  0  1 52.823908  7.150574 41.402231
15255  0  1 52.824006  7.150404 44.257756
15256  0  1 52.824198  7.150044 47.113475
15257  0  1 52.824558  7.149259 49.969502
15258  0  1 52.824895  7.149318 52.824469
15259  0  1 52.824624  7.149683 55.678912
15260  0  1 52.824105 10.005650  1.427500
15261  0  1 52.824204 10.005488  4.282482
15262  0  1 52.824265 10.005216  7.137449
15263  0  1 52.824203 10.005260  9.992722
15264  0  1 52.824095 10.005546 12.848305
15265  0  1 52.824008 10.005759 15.703854
15266  0  1 52.823943 10.005903 18.559329
15267  0  1 52.823894 10.006004 21.414743
15268  0  1 52.823861 10.006069 24.270113
15269  0  1 52.823845 10.006102 27.125455
15270  0  1 52.823845 10.006102 29.980787
15271  0  1 52.823861 10.006069 32.836128
15272  0  1 52.823894 10.006004 35.691498
15273  0  1 52.823943 10.005903 38.546913
15274  0  1 52.824008 10.005759 41.402388
15275  0  1 52.824095 10.005546 44.257936
15276  0  1 52.824203 10.005260 47.113520
15277  0  1 52.824265 10.005216 49.968792
15278  0  1 52.824204 10.005488 52.823760
15279  0  1 52.824105 10.005650 55.678741
15280  0  1 52.823988 12.861151  1.427545
15281  0  1 52.824048 12.861059  4.282633
15282  0  1 52.824116 12.860903  7.137730
15283  0  1 52.824139 12.860811  9.992912
15284  0  1 52.824105 12.860877 12.848271
15285  0  1 52.824036 12.861041 15.703752
15286  0  1 52.823963 12.861200 18.559235
15287  0  1 52.823900 12.861329 21.414677
15288  0  1 52.823856 12.861419 24.270075
15289  0  1 52.823833 12.861465 27.125442
15290  0  1 52.823833 12.861465 29.980799
15291  0  1 52.823856 12.861419 32.836166
15292  0  1 52.823900 12.861329 35.691564
15293  0  1 52.823963 12.861200 38.547006
15294  0  1 52.824036 12.861041 41.402489
15295  0  1 52.824105 12.860877 44.257970
15296  0  1 52.824139 12.860811 47.113329
15297  0  1 52.824116 12.860903 49.968511
15298  0  1 52.824048 12.861059 52.823608
15299  0  1 52.823988 12.861151 55.678696
15300  0  1 52.823932 15.716582  1.427558
15301  0  1 52.823978 15.716530  4.282680
15302  0  1 52.824037 15.716442  7.137829
15303  0  1 52.824071 15.716365  9.993033
15304  0  1 52.824055 15.716356 12.848332
15305  0  1 52.823993 15.716438 15.703732
15306  0  1 52.823908 15.716571 18.559185
15307  0  1 52.823828 15.716706 21.414630
15308  0  1 52.823769 15.716810 24.270045
15309  0  1 52.823738 15.716866 27.125432
15310  0  1 52.823738 15.716866 29.980809
15311  0  1 52.823769 15.716810 32.836196
15312  0  1 52.823828 15.716706 35.691611
15313  0  1 52.823908 15.716571 38.547057
15314  0  1 52.823993 15.716438 41.402509
15315  0  1 52.824055 15.716356 44.257910
15316  0  1 52.824071 15.716365 47.113208
15317  0  1 52.824037 15.716442 49.968413
15318  0  1 52.823978 15.716530 52.823561
15319  0  1 52.823932 15.716582 55.678684
15320  0  1 52.823882 18.572012  1.427563
15321  0  1 52.823921 18.571984  4.282699
15322  0  1 52.823972 18.571936  7.137871
15323  0  1 52.823998 18.571889  9.993100
15324  0  1 52.823975 18.571872 12.848400
15325  0  1 52.823901 18.571908 15.703767
15326  0  1 52.823801 18.571996 18.559182
15327  0  1 52.823704 18.572108 21.414610
15328  0  1 52.823631 18.572208 24.270026
15329  0  1 52.823592 18.572266 27.125425
15330  0  1 52.823592 18.572266 29.980816
15331  0  1 52.823631 18.572208 32.836215
15332  0  1 52.823704 18.572108 35.691632
15333  0  1 52.823801 18.571996 38.547059
15334  0  1 52.823901 18.571908 41.402474
15335  0  1 52.823975 18.571872 44.257842
15336  0  1 52.823998 18.571889 47.113141
15337  0  1 52.823972 18.571936 49.968370
15338  0  1 52.823921 18.571984 52.823542
15339  0  1 52.823882 18.572012 55.678679
15340  0  1 52.823826 21.427449  1.427566
15341  0  1 52.823861 21.427435  4.282712
15342  0  1 52.823904 21.427413  7.137899
15343  0  1 52.823919 21.427390  9.993148
15344  0  1 52.823880 21.427380 12.848461
15345  0  1 52.823790 21.427395 15.703824
15346  0  1 52.823675 21.427442 18.559214
15347  0  1 52.823564 21.427511 21.414617
15348  0  1 52.823480 21.427583 24.270021
15349  0  1 52.823436 21.427628 27.125421
15350  0  1 52.823436 21.427628 29.980820
15351  0  1 52.823480 21.427583 32.836221
15352  0  1 52.823564 21.427511 35.691625
15353  0  1 52.823675 21.427442 38.547027
15354  0  1 52.823790 21.427395 41.402418
15355  0  1 52.823880 21.427380 44.257780
15356  0  1 52.823919 21.427390 47.113093
15357  0  1 52.823904 21.427413 49.968342
15358  0  1 52.823861 21.427435 52.823530
15359  0  1 52.823826 21.427449 55.678675
15360  0  1 52.823766 24.282889  1.427570
15361  0  1 52.823797 24.282885  4.282724
15362  0  1 52.823833 24.282879  7.137924
15363  0  1 52.823838 24.282872  9.993189
15364  0  1 52.823786 24.282867 12.848516
15365  0  1 52.823682 24.282868 15.703884
15366  0  1 52.823555 24.282878 18.559265
15367  0  1 52.823435 24.282899 21.414647
15368  0  1 52.823347 24.282924 24.270032
15369  0  1 52.823300 24.282943 27.125423
15370  0  1 52.823300 24.282943 29.980818
15371  0  1 52.823347 24.282924 32.836210
15372  0  1 52.823435 24.282899 35.691594
15373  0  1 52.823555 24.282878 38.546976
15374  0  1 52.823682 24.282868 41.402357
15375  0  1 52.823786 24.282867 44.257725
15376  0  1 52.823838 24.282872 47.113053
15377  0  1 52.823833 24.282879 49.968318
15378  0  1 52.823797 24.282885 52.823517
15379  0  1 52.823766 24.282889 55.678672
15380  0  1 52.823704 27.138327  1.427574
15381  0  1 52.823731 27.138330  4.282737
15382  0  1 52.823761 27.138334  7.137948
15383  0  1 52.823758 27.138335  9.993226
15384  0  1 52.823698 27.138331 12.848566
15385  0  1 52.823588 27.138317 15.703941
15386  0  1 52.823456 27.138294 18.559321
15387  0  1 52.823335 27.138266 21.414692
15388  0  1 52.823246 27.138240 24.270059
15389  0  1 52.823200 27.138224 27.125432
15390  0  1 52.823200 27.138224 29.980809
15391  0  1 52.823246 27.138240 32.836182
15392  0  1 52.823335 27.138266 35.691550
15393  0  1 52.823456 27.138294 38.546921
15394  0  1 52.823588 27.138317 41.402301
15395  0  1 52.823698 27.138331 44.257676
15396  0  1 52.823758 27.138335 47.113015
15397  0  1 52.823761 27.138334 49.968293
15398  0  1 52.823731 27.138330 52.823504
15399  0  1 52.823704 27.138327 55.678667
15400  0  1 52.823642 29.993760  1.427579
15401  0  1 52.823666 29.993767  4.282752
15402  0  1 52.823691 29.993777  7.137973
15403  0  1 52.823683 29.993782  9.993260
15404  0  1 52.823621 29.993773 12.848607
15405  0  1 52.823512 29.993742 15.703988
15406  0  1 52.823384 29.993687 18.559371
15407  0  1 52.823267 29.993616 21.414740
15408  0  1 52.823182 29.993545 24.270096
15409  0  1 52.823138 29.993500 27.125446
15410  0  1 52.823138 29.993500 29.980795
15411  0  1 52.823182 29.993545 32.836146
15412  0  1 52.823267 29.993616 35.691502
15413  0  1 52.823384 29.993687 38.546871
15414  0  1 52.823512 29.993742 41.402253
15415  0  1 52.823621 29.993773 44.257634
15416  0  1 52.823683 29.993782 47.112982
15417  0  1 52.823691 29.993777 49.968269
15418  0  1 52.823666 29.993767 52.823489
15419  0  1 52.823642 29.993760 55.678663
15420  0  1 52.823584 32.849184  1.427584
15421  0  1 52.823605 32.849194  4.282768
15422  0  1 52.823626 32.849209  7.137997
15423  0  1 52.823616 32.849215  9.993289
15424  0  1 52.823556 32.849199 12.848639
15425  0  1 52.823454 32.849151 15.704022
15426  0  1 52.823336 32.849066 18.559409
15427  0  1 52.823229 32.848959 21.414780
15428  0  1 52.823152 32.848856 24.270130
15429  0  1 52.823113 32.848793 27.125460
15430  0  1 52.823113 32.848793 29.980782
15431  0  1 52.823152 32.848856 32.836112
15432  0  1 52.823229 32.848959 35.691461
15433  0  1 52.823336 32.849066 38.546833
15434  0  1 52.823454 32.849151 41.402220
15435  0  1 52.823556 32.849199 44.257603
15436  0  1 52.823616 32.849215 47.112953
15437  0  1 52.823626 32.849209 49.968245
15438  0  1 52.823605 32.849194 52.823474
15439  0  1 52.823584 32.849184 55.678657
15440  0  1 52.823533 35.704596  1.427590
15441  0  1 52.823551 35.704610  4.282783
15442  0  1 52.823569 35.704630  7.138018
15443  0  1 52.823558 35.704640  9.993310
15444  0  1 52.823504 35.704618 12.848656
15445  0  1 52.823413 35.704551 15.704039
15446  0  1 52.823309 35.704439 18.559431
15447  0  1 52.823215 35.704304 21.414807
15448  0  1 52.823149 35.704184 24.270153
15449  0  1 52.823116 35.704114 27.125469
15450  0  1 52.823116 35.704114 29.980773
15451  0  1 52.823149 35.704184 32.836089
15452  0  1 52.823215 35.704304 35.691434
15453  0  1 52.823309 35.704439 38.546810
15454  0  1 52.823413 35.704551 41.402202
15455  0  1 52.823504 35.704618 44.257585
15456  0  1 52.823558 35.704640 47.112932
15457  0  1 52.823569 35.704630 49.968223
15458  0  1 52.823551 35.704610 52.823458
15459  0  1 52.823533 35.704596 55.678651
15460  0  1 52.823496 38.559993  1.427595
15461  0  1 52.823513 38.560015  4.282795
15462  0  1 52.823528 38.560047  7.138030
15463  0  1 52.823517 38.560065  9.993314
15464  0  1 52.823467 38.560038 12.848653
15465  0  1 52.823386 38.559949 15.704038
15466  0  1 52.823295 38.559808 18.559441
15467  0  1 52.823216 38.559654 21.414824
15468  0  1 52.823161 38.559530 24.270167
15469  0  1 52.823134 38.559461 27.125474
15470  0  1 52.823134 38.559461 29.980767
15471  0  1 52.823161 38.559530 32.836074
15472  0  1 52.823216 38.559654 35.691417
15473  0  1 52.823295 38.559808 38.546800
15474  0  1 52.823386 38.559949 41.402203
15475  0  1 52.823467 38.560038 44.257588
15476  0  1 52.823517 38.560065 47.112927
15477  0  1 52.823528 38.560047 49.968212
15478  0  1 52.823513 38.560015 52.823447
15479  0  1 52.823496 38.559993 55.678647
15480  0  1 52.823482 41.415376  1.427596
15481  0  1 52.823501 41.415413  4.282794
15482  0  1 52.823516 41.415472  7.138015
15483  0  1 52.823502 41.415507  9.993280
15484  0  1 52.823450 41.415464 12.848618
15485  0  1 52.823371 41.415332 15.704026
15486  0  1 52.823288 41.415159 18.559453
15487  0  1 52.823220 41.415000 21.414843
15488  0  1 52.823175 41.414884 24.270181
15489  0  1 52.823154 41.414823 27.125479
15490  0  1 52.823154 41.414823 29.980763
15491  0  1 52.823175 41.414884 32.836061
15492  0  1 52.823220 41.415000 35.691399
15493  0  1 52.823288 41.415159 38.546789
15494  0  1 52.823371 41.415332 41.402215
15495  0  1 52.823450 41.415464 44.257624
15496  0  1 52.823502 41.415507 47.112961
15497  0  1 52.823516 41.415472 49.968226
15498  0  1 52.823501 41.415413 52.823448
15499  0  1 52.823482 41.415376 55.678646
15500  0  1 52.823514 44.270759  1.427586
15501  0  1 52.823545 44.270830  4.282755
15502  0  1 52.823564 44.270948  7.137927
15503  0  1 52.823533 44.270991  9.993167
15504  0  1 52.823456 44.270872 12.848557
15505  0  1 52.823363 44.270664 15.704036
15506  0  1 52.823282 44.270474 18.559485
15507  0  1 52.823222 44.270329 21.414870
15508  0  1 52.823185 44.270232 24.270196
15509  0  1 52.823167 44.270183 27.125484
15510  0  1 52.823167 44.270183 29.980758
15511  0  1 52.823185 44.270232 32.836045
15512  0  1 52.823222 44.270329 35.691371
15513  0  1 52.823282 44.270474 38.546756
15514  0  1 52.823363 44.270664 41.402205
15515  0  1 52.823456 44.270872 44.257684
15516  0  1 52.823533 44.270991 47.113074
15517  0  1 52.823564 44.270948 49.968315
15518  0  1 52.823545 44.270830 52.823487
15519  0  1 52.823514 44.270759 55.678656
15520  0  1 52.823655 47.126216  1.427540
15521  0  1 52.823725 47.126356  4.282598
15522  0  1 52.823740 47.126589  7.137633
15523  0  1 52.823627 47.126498  9.992954
15524  0  1 52.823475 47.126165 12.848558
15525  0  1 52.823360 47.125917 15.704098
15526  0  1 52.823280 47.125748 18.559540
15527  0  1 52.823226 47.125634 21.414905
15528  0  1 52.823194 47.125562 24.270213
15529  0  1 52.823178 47.125527 27.125489
15530  0  1 52.823178 47.125527 29.980753
15531  0  1 52.823194 47.125562 32.836028
15532  0  1 52.823226 47.125634 35.691337
15533  0  1 52.823280 47.125748 38.546701
15534  0  1 52.823360 47.125917 41.402143
15535  0  1 52.823475 47.126165 44.257683
15536  0  1 52.823627 47.126497 47.113287
15537  0  1 52.823740 47.126589 49.968608
15538  0  1 52.823725 47.126356 52.823643
15539  0  1 52.823655 47.126216 55.678701
15540  0  1 52.824249 49.982149  1.427363
15541  0  1 52.824497 49.982494  4.281870
15542  0  1 52.824124 49.982521  7.136889
15543  0  1 52.823723 49.981699  9.992950
15544  0  1 52.823494 49.981305 12.848681
15545  0  1 52.823370 49.981108 15.704196
15546  0  1 52.823294 49.980989 18.559600
15547  0  1 52.823245 49.980913 21.414936
15548  0  1 52.823216 49.980865 24.270228
15549  0  1 52.823203 49.980842 27.125493
15550  0  1 52.823203 49.980842 29.980749
15551  0  1 52.823216 49.980865 32.836014
15552  0  1 52.823245 49.980913 35.691305
15553  0  1 52.823294 49.980989 38.546642
15554  0  1 52.823370 49.981108 41.402046
15555  0  1 52.823494 49.981305 44.257561
15556  0  1 52.823723 49.981699 47.113291
15557  0  1 52.824124 49.982521 49.969352
15558  0  1 52.824497 49.982494 52.824371
15559  0  1 52.824249 49.982149 55.678878
15560  0  1 52.827170 52.840036  1.427210
15561  0  1 52.830016 52.842882  4.276413
15562  0  1 52.824523 52.837389  7.136962
15563  0  1 52.823739 52.836605  9.993228
15564  0  1 52.823514 52.836380 12.848836
15565  0  1 52.823405 52.836271 15.704277
15566  0  1 52.823338 52.836204 18.559641
15567  0  1 52.823296 52.836162 21.414955
15568  0  1 52.823269 52.836135 24.270235
15569  0  1 52.823257 52.836123 27.125494
15570  0  1 52.823257 52.836123 29.980747
15571  0  1 52.823269 52.836135 32.836007
15572  0  1 52.823296 52.836162 35.691287
15573  0  1 52.823338 52.836204 38.546601
15574  0  1 52.823405 52.836271 41.401964
15575  0  1 52.823514 52.836380 44.257406
15576  0  1 52.823739 52.836605 47.113013
15577  0  1 52.824523 52.837389 49.969279
15578  0  1 52.830016 52.842882 52.829828
15579  0  1 52.827170 52.840036 55.679031
15580  0  1 52.823686 55.689937  1.429180
15581  0  1 52.827231 55.691902  4.279267
15582  0  1 52.824341 55.691731  7.137314
15583  0  1 52.823743 55.691529  9.993371
15584  0  1 52.823568 55.691455 12.848904
15585  0  1 52.823480 55.691418 15.704305
15586  0  1 52.823425 55.691395 18.559648
15587  0  1 52.823387 55.691380 21.414953
15588  0  1 52.823363 55.691372 24.270231
15589  0  1 52.823351 55.691368 27.125493
15590  0  1 52.823351 55.691368 29.980749
15591  0  1 52.823363 55.691372 32.836010
15592  0  1 52.823387 55.691380 35.691288
15593  0  1 52.823425 55.691395 38.546594
15594  0  1 52.823480 55.691418 41.401937
15595  0  1 52.823568 55.691455 44.257337
15596  0  1 52.823743 55.691529 47.112870
15597  0  1 52.824341 55.691731 49.968927
15598  0  1 52.827231 55.691902 52.826974
15599  0  1 52.823686 55.689937 55.677061
15600  0  1 55.719994  1.399201  1.386441
15601  0  1 55.677241  1.441955  4.282822
15602  0  1 55.678713  1.440482  7.138468
15603  0  1 55.678809  1.440386  9.993680
15604  0  1 55.678785  1.440411 12.849012
15605  0  1 55.678764  1.440432 15.704347
15606  0  1 55.678749  1.440446 18.559663
15607  0  1 55.678739  1.440457 21.414957
15608  0  1 55.678732  1.440463 24.270231
15609  0  1 55.678729  1.440467 27.125492
15610  0  1 55.678729  1.440467 29.980749
15611  0  1 55.678732  1.440463 32.836010
15612  0  1 55.678739  1.440457 35.691284
15613  0  1 55.678749  1.440446 38.546578
15614  0  1 55.678764  1.440432 41.401894
15615  0  1 55.678785  1.440411 44.257229
15616  0  1 55.678809  1.440386 47.112561
15617  0  1 55.678713  1.440482 49.967774
15618  0  1 55.677241  1.441955 52.823419
15619  0  1 55.719994  1.399201 55.719801
15620  0  1 55.677334  4.295416  1.429168
15621  0  1 55.679302  4.291870  4.279243
15622  0  1 55.679149  4.294754  7.137281
15623  0  1 55.678967  4.295344  9.993332
15624  0  1 55.678910  4.295511 12.848863
15625  0  1 55.678885  4.295592 15.704266
15626  0  1 55.678870  4.295643 18.559615
15627  0  1 55.678859  4.295678 21.414928
15628  0  1 55.678853  4.295701 24.270216
15629  0  1 55.678849  4.295712 27.125488
15630  0  1 55.678849  4.295712 29.980754
15631  0  1 55.678853  4.295701 32.836025
15632  0  1 55.678859  4.295678 35.691313
15633  0  1 55.678870  4.295643 38.546626
15634  0  1 55.678885  4.295592 41.401975
15635  0  1 55.678910  4.295511 44.257379
15636  0  1 55.678967  4.295344 47.112910
15637  0  1 55.679149  4.294754 49.968960
15638  0  1 55.679302  4.291870 52.826998
15639  0  1 55.677334  4.295416 55.677073
15640  0  1 55.678873  7.150927  1.427687
15641  0  1 55.679218  7.149777  4.282087
15642  0  1 55.679172  7.149428  7.136875
15643  0  1 55.679064  7.150231  9.992930
15644  0  1 55.679010  7.150592 12.848638
15645  0  1 55.678983  7.150762 15.704137
15646  0  1 55.678965  7.150862 18.559538
15647  0  1 55.678952  7.150928 21.414883
15648  0  1 55.678944  7.150970 24.270192
15649  0  1 55.678939  7.150991 27.125480
15650  0  1 55.678939  7.150991 29.980761
15651  0  1 55.678944  7.150970 32.836049
15652  0  1 55.678952  7.150928 35.691358
15653  0  1 55.678965  7.150862 38.546703
15654  0  1 55.678983  7.150762 41.402104
15655  0  1 55.679010  7.150592 44.257603
15656  0  1 55.679064  7.150231 47.113311
15657  0  1 55.679172  7.149428 49.969367
15658  0  1 55.679218  7.149777 52.824154
15659  0  1 55.678873  7.150927 55.678555
15660  0  1 55.679016 10.006046  1.427577
15661  0  1 55.679079 10.005736  4.282630
15662  0  1 55.679107 10.005398  7.137607
15663  0  1 55.679096 10.005429  9.992879
15664  0  1 55.679066 10.005738 12.848469
15665  0  1 55.679039 10.005966 15.704004
15666  0  1 55.679016 10.006116 18.559450
15667  0  1 55.678998 10.006218 21.414830
15668  0  1 55.678985 10.006283 24.270164
15669  0  1 55.678978 10.006316 27.125472
15670  0  1 55.678978 10.006316 29.980770
15671  0  1 55.678985 10.006283 32.836077
15672  0  1 55.678998 10.006218 35.691411
15673  0  1 55.679016 10.006116 38.546791
15674  0  1 55.679039 10.005966 41.402237
15675  0  1 55.679066 10.005738 44.257772
15676  0  1 55.679096 10.005429 47.113363
15677  0  1 55.679107 10.005398 49.968634
15678  0  1 55.679079 10.005736 52.823611
15679  0  1 55.679016 10.006046 55.678665
15680  0  1 55.679014 12.861336  1.427586
15681  0  1 55.679040 12.861225  4.282747
15682  0  1 55.679068 12.861062  7.137891
15683  0  1 55.679080 12.860976  9.993094
15684  0  1 55.679070 12.861063 12.848457
15685  0  1 55.679046 12.861246 15.703925
15686  0  1 55.679018 12.861416 18.559377
15687  0  1 55.678992 12.861546 21.414779
15688  0  1 55.678973 12.861634 24.270136
15689  0  1 55.678963 12.861678 27.125463
15690  0  1 55.678963 12.861678 29.980779
15691  0  1 55.678973 12.861634 32.836105
15692  0  1 55.678992 12.861546 35.691462
15693  0  1 55.679018 12.861416 38.546864
15694  0  1 55.679046 12.861246 41.402316
15695  0  1 55.679070 12.861063 44.257784
15696  0  1 55.679080 12.860976 47.113147
15697  0  1 55.679068 12.861062 49.968350
15698  0  1 55.679040 12.861225 52.823494
15699  0  1 55.679014 12.861336 55.678655
15700  0  1 55.678992 15.716686  1.427592
15701  0  1 55.679010 15.716639  4.282781
15702  0  1 55.679032 15.716564  7.137986
15703  0  1 55.679043 15.716506  9.993226
15704  0  1 55.679036 15.716520 12.848535
15705  0  1 55.679011 15.716622 15.703922
15706  0  1 55.678977 15.716766 18.559341
15707  0  1 55.678944 15.716901 21.414743
15708  0  1 55.678919 15.717001 24.270112
15709  0  1 55.678906 15.717054 27.125454
15710  0  1 55.678906 15.717054 29.980787
15711  0  1 55.678919 15.717001 32.836129
15712  0  1 55.678944 15.716901 35.691498
15713  0  1 55.678977 15.716766 38.546900
15714  0  1 55.679011 15.716622 41.402319
15715  0  1 55.679036 15.716520 44.257706
15716  0  1 55.679043 15.716506 47.113015
15717  0  1 55.679032 15.716564 49.968255
15718  0  1 55.679010 15.716639 52.823461
15719  0  1 55.678992 15.716686 55.678649
15720  0  1 55.678955 18.572072  1.427594
15721  0  1 55.678969 18.572050  4.282792
15722  0  1 55.678986 18.572017  7.138022
15723  0  1 55.678992 18.571991  9.993292
15724  0  1 55.678979 18.571996 12.848605
15725  0  1 55.678949 18.572053 15.703960
15726  0  1 55.678910 18.572154 18.559343
15727  0  1 55.678872 18.572269 21.414728
15728  0  1 55.678842 18.572364 24.270097
15729  0  1 55.678826 18.572418 27.125448
15730  0  1 55.678826 18.572418 29.980793
15731  0  1 55.678842 18.572364 32.836145
15732  0  1 55.678872 18.572269 35.691514
15733  0  1 55.678910 18.572154 38.546899
15734  0  1 55.678949 18.572053 41.402281
15735  0  1 55.678979 18.571996 44.257636
15736  0  1 55.678992 18.571991 47.112950
15737  0  1 55.678986 18.572017 49.968220
15738  0  1 55.678969 18.572050 52.823449
15739  0  1 55.678955 18.572072 55.678648
15740  0  1 55.678906 21.427479  1.427594
15741  0  1 55.678917 21.427470  4.282797
15742  0  1 55.678930 21.427458  7.138039
15743  0  1 55.678930 21.427450  9.993327
15744  0  1 55.678911 21.427457 12.848654
15745  0  1 55.678875 21.427492 15.704004
15746  0  1 55.678832 21.427555 18.559365
15747  0  1 55.678791 21.427635 21.414730
15748  0  1 55.678760 21.427709 24.270090
15749  0  1 55.678743 21.427753 27.125445
15750  0  1 55.678743 21.427753 29.980796
15751  0  1 55.678760 21.427709 32.836151
15752  0  1 55.678791 21.427635 35.691511
15753  0  1 55.678832 21.427555 38.546876
15754  0  1 55.678875 21.427492 41.402238
15755  0  1 55.678911 21.427457 44.257588
15756  0  1 55.678930 21.427450 47.112914
15757  0  1 55.678930 21.427458 49.968202
15758  0  1 55.678917 21.427470 52.823444
15759  0  1 55.678906 21.427479 55.678647
15760  0  1 55.678848 24.282898  1.427595
15761  0  1 55.678858 24.282896  4.282801
15762  0  1 55.678866 24.282893  7.138050
15763  0  1 55.678862 24.282893  9.993350
15764  0  1 55.678839 24.282900 12.848687
15765  0  1 55.678800 24.282918 15.704040
15766  0  1 55.678756 24.282949 18.559393
15767  0  1 55.678715 24.282990 21.414743
15768  0  1 55.678684 24.283031 24.270092
15769  0  1 55.678668 24.283057 27.125444
15770  0  1 55.678668 24.283057 29.980797
15771  0  1 55.678684 24.283031 32.836149
15772  0  1 55.678715 24.282990 35.691498
15773  0  1 55.678756 24.282949 38.546848
15774  0  1 55.678800 24.282918 41.402201
15775  0  1 55.678839 24.282900 44.257554
15776  0  1 55.678862 24.282893 47.112891
15777  0  1 55.678866 24.282893 49.968191
15778  0  1 55.678858 24.282896 52.823440
15779  0  1 55.678848 24.282898 55.678646
15780  0  1 55.678787 27.138323  1.427596
15781  0  1 55.678794 27.138324  4.282805
15782  0  1 55.678800 27.138325  7.138060
15783  0  1 55.678793 27.138327  9.993367
15784  0  1 55.678768 27.138328 12.848710
15785  0  1 55.678730 27.138329 15.704066
15786  0  1 55.678687 27.138330 18.559417
15787  0  1 55.678648 27.138333 21.414759
15788  0  1 55.678620 27.138337 24.270101
15789  0  1 55.678605 27.138339 27.125446
15790  0  1 55.678605 27.138339 29.980795
15791  0  1 55.678620 27.138337 32.836141
15792  0  1 55.678648 27.138333 35.691482
15793  0  1 55.678687 27.138330 38.546825
15794  0  1 55.678730 27.138329 41.402175
15795  0  1 55.678768 27.138328 44.257531
15796  0  1 55.678793 27.138327 47.112875
15797  0  1 55.678800 27.138325 49.968181
15798  0  1 55.678794 27.138324 52.823436
15799  0  1 55.678787 27.138323 55.678645
15800  0  1 55.678724 29.993748  1.427598
15801  0  1 55.678730 29.993751  4.282810
15802  0  1 55.678733 29.993754  7.138068
15803  0  1 55.678725 29.993753  9.993378
15804  0  1 55.678701 29.993746 12.848724
15805  0  1 55.678665 29.993730 15.704081
15806  0  1 55.678626 29.993703 18.559432
15807  0  1 55.678592 29.993669 21.414774
15808  0  1 55.678567 29.993636 24.270112
15809  0  1 55.678555 29.993615 27.125451
15810  0  1 55.678555 29.993615 29.980791
15811  0  1 55.678567 29.993636 32.836130
15812  0  1 55.678592 29.993669 35.691467
15813  0  1 55.678626 29.993703 38.546809
15814  0  1 55.678665 29.993730 41.402160
15815  0  1 55.678701 29.993746 44.257518
15816  0  1 55.678725 29.993753 47.112864
15817  0  1 55.678733 29.993754 49.968173
15818  0  1 55.678730 29.993751 52.823431
15819  0  1 55.678724 29.993748 55.678643
15820  0  1 55.678663 32.849168  1.427600
15821  0  1 55.678667 32.849173  4.282816
15822  0  1 55.678669 32.849178  7.138075
15823  0  1 55.678661 32.849177  9.993383
15824  0  1 55.678639 32.849163 12.848727
15825  0  1 55.678607 32.849129 15.704084
15826  0  1 55.678573 32.849074 18.559438
15827  0  1 55.678544 32.849005 21.414784
15828  0  1 55.678525 32.848940 24.270122
15829  0  1 55.678515 32.848900 27.125455
15830  0  1 55.678515 32.848900 29.980786
15831  0  1 55.678525 32.848940 32.836119
15832  0  1 55.678544 32.849005 35.691457
15833  0  1 55.678573 32.849074 38.546803
15834  0  1 55.678607 32.849129 41.402158
15835  0  1 55.678639 32.849163 44.257515
15836  0  1 55.678661 32.849177 47.112858
15837  0  1 55.678669 32.849178 49.968166
15838  0  1 55.678667 32.849173 52.823425
15839  0  1 55.678663 32.849168 55.678641
15840  0  1 55.678607 35.704578  1.427603
15841  0  1 55.678610 35.704587  4.282822
15842  0  1 55.678611 35.704599  7.138079
15843  0  1 55.678602 35.704602  9.993381
15844  0  1 55.678583 35.704584 12.848717
15845  0  1 55.678555 35.704533 15.704072
15846  0  1 55.678527 35.704449 18.559433
15847  0  1 55.678504 35.704348 21.414789
15848  0  1 55.678489 35.704259 24.270131
15849  0  1 55.678481 35.704206 27.125459
15850  0  1 55.678481 35.704206 29.980782
15851  0  1 55.678489 35.704259 32.836110
15852  0  1 55.678504 35.704348 35.691452
15853  0  1 55.678527 35.704449 38.546808
15854  0  1 55.678555 35.704533 41.402169
15855  0  1 55.678583 35.704584 44.257525
15856  0  1 55.678602 35.704602 47.112861
15857  0  1 55.678611 35.704599 49.968162
15858  0  1 55.678610 35.704587 52.823420
15859  0  1 55.678607 35.704578 55.678639
15860  0  1 55.678562 38.559972  1.427605
15861  0  1 55.678564 38.559991  4.282825
15862  0  1 55.678563 38.560019  7.138075
15863  0  1 55.678554 38.560036  9.993362
15864  0  1 55.678535 38.560017 12.848687
15865  0  1 55.678511 38.559944 15.704046
15866  0  1 55.678487 38.559826 18.559424
15867  0  1 55.678468 38.559698 21.414795
15868  0  1 55.678457 38.559594 24.270141
15869  0  1 55.678452 38.559537 27.125464
15870  0  1 55.678452 38.559537 29.980777
15871  0  1 55.678457 38.559594 32.836100
15872  0  1 55.678468 38.559698 35.691446
15873  0  1 55.678487 38.559826 38.546817
15874  0  1 55.678511 38.559944 41.402195
15875  0  1 55.678535 38.560017 44.257555
15876  0  1 55.678554 38.560036 47.112879
15877  0  1 55.678563 38.560019 49.968166
15878  0  1 55.678564 38.559991 52.823416
15879  0  1 55.678562 38.559972 55.678637
15880  0  1 55.678534 41.415340  1.427605
15881  0  1 55.678536 41.415383  4.282820
15882  0  1 55.678534 41.415449  7.138049
15883  0  1 55.678523 41.415494  9.993308
15884  0  1 55.678502 41.415464 12.848628
15885  0  1 55.678477 41.415347 15.704016
15886  0  1 55.678455 41.415191 18.559427
15887  0  1 55.678439 41.415048 21.414811
15888  0  1 55.678430 41.414944 24.270156
15889  0  1 55.678426 41.414889 27.125469
15890  0  1 55.678426 41.414889 29.980772
15891  0  1 55.678430 41.414944 32.836086
15892  0  1 55.678439 41.415048 35.691430
15893  0  1 55.678455 41.415191 38.546815
15894  0  1 55.678477 41.415347 41.402225
15895  0  1 55.678502 41.415464 44.257613
15896  0  1 55.678523 41.415494 47.112934
15897  0  1 55.678534 41.415449 49.968193
15898  0  1 55.678536 41.415383 52.823421
15899  0  1 55.678534 41.415340 55.678636
15900  0  1 55.678530 44.270674  1.427600
15901  0  1 55.678538 44.270779  4.282789
15902  0  1 55.678537 44.270930  7.137957
15903  0  1 55.678520 44.271000  9.993178
15904  0  1 55.678490 44.270897 12.848550
15905  0  1 55.678459 44.270700 15.704017
15906  0  1 55.678434 44.270522 18.559458
15907  0  1 55.678419 44.270387 21.414842
15908  0  1 55.678411 44.270296 24.270175
15909  0  1 55.678408 44.270251 27.125476
15910  0  1 55.678408 44.270251 29.980765
15911  0  1 55.678411 44.270296 32.836066
15912  0  1 55.678419 44.270387 35.691400
15913  0  1 55.678434 44.270522 38.546784
15914  0  1 55.678459 44.270700 41.402224
15915  0  1 55.678490 44.270897 44.257691
15916  0  1 55.678520 44.271000 47.113063
15917  0  1 55.678537 44.270930 49.968284
15918  0  1 55.678538 44.270779 52.823452
15919  0  1 55.678530 44.270674 55.678641
15920  0  1 55.678554 47.125948  1.427591
15921  0  1 55.678600 47.126250  4.282670
15922  0  1 55.678597 47.126576  7.137670
15923  0  1 55.678556 47.126530  9.992956
15924  0  1 55.678501 47.126207 12.848553
15925  0  1 55.678460 47.125969 15.704084
15926  0  1 55.678434 47.125811 18.559519
15927  0  1 55.678418 47.125705 21.414882
15928  0  1 55.678410 47.125637 24.270197
15929  0  1 55.678406 47.125604 27.125483
15930  0  1 55.678406 47.125604 29.980759
15931  0  1 55.678410 47.125637 32.836044
15932  0  1 55.678418 47.125705 35.691359
15933  0  1 55.678434 47.125811 38.546722
15934  0  1 55.678460 47.125969 41.402157
15935  0  1 55.678501 47.126207 44.257688
15936  0  1 55.678556 47.126530 47.113285
15937  0  1 55.678597 47.126576 49.968572
15938  0  1 55.678600 47.126250 52.823571
15939  0  1 55.678554 47.125948 55.678651
15940  0  1 55.678487 49.981054  1.427699
15941  0  1 55.678818 49.982198  4.282121
15942  0  1 55.678747 49.982537  7.136926
15943  0  1 55.678611 49.981722  9.992992
15944  0  1 55.678533 49.981349 12.848704
15945  0  1 55.678489 49.981171 15.704199
15946  0  1 55.678463 49.981065 18.559591
15947  0  1 55.678448 49.980995 21.414923
15948  0  1 55.678439 49.980951 24.270217
15949  0  1 55.678435 49.980930 27.125489
15950  0  1 55.678435 49.980930 29.980753
15951  0  1 55.678439 49.980951 32.836024
15952  0  1 55.678448 49.980995 35.691318
15953  0  1 55.678463 49.981065 38.546651
15954  0  1 55.678489 49.981171 41.402043
15955  0  1 55.678533 49.981349 44.257538
15956  0  1 55.678611 49.981722 47.113249
15957  0  1 55.678747 49.982537 49.969316
15958  0  1 55.678818 49.982198 52.824120
15959  0  1 55.678487 49.981054 55.678542
15960  0  1 55.677071 52.836552  1.429180
15961  0  1 55.679036 52.840097  4.279267
15962  0  1 55.678865 52.837207  7.137314
15963  0  1 55.678663 52.836609  9.993371
15964  0  1 55.678589 52.836434 12.848904
15965  0  1 55.678552 52.836346 15.704305
15966  0  1 55.678529 52.836290 18.559648
15967  0  1 55.678514 52.836253 21.414953
15968  0  1 55.678506 52.836229 24.270231
15969  0  1 55.678502 52.836217 27.125493
15970  0  1 55.678502 52.836217 29.980749
15971  0  1 55.678506 52.836229 32.836010
15972  0  1 55.678514 52.836253 35.691288
15973  0  1 55.678529 52.836290 38.546594
15974  0  1 55.678552 52.836346 41.401937
15975  0  1 55.678589 52.836434 44.257337
15976  0  1 55.678663 52.836609 47.112870
15977  0  1 55.678865 52.837207 49.968927
15978  0  1 55.679036 52.840097 52.826974
15979  0  1 55.677071 52.836552 55.677061
15980  0  1 55.719870 55.732736  1.386481
15981  0  1 55.677146 55.690012  4.282831
15982  0  1 55.678613 55.691479  7.138479
15983  0  1 55.678703 55.691569  9.993694
15984  0  1 55.678672 55.691538 12.849026
15985  0  1 55.678646 55.691512 15.704360
15986  0  1 55.678628 55.691494 18.559675
15987  0  1 55.678616 55.691482 21.414966
15988  0  1 55.678608 55.691474 24.270237
15989  0  1 55.678605 55.691471 27.125494
15990  0  1 55.678605 55.691471 29.980747
15991  0  1 55.678608 55.691474 32.836005
15992  0  1 55.678616 55.691482 35.691276
15993  0  1 55.678628 55.691494 38.546567
15994  0  1 55.678646 55.691512 41.401881
15995  0  1 55.678672 55.691538 44.257215
15996  0  1 55.678703 55.691569 47.112548
15997  0  1 55.678613 55.691479 49.967762
15998  0  1 55.677145 55.690011 52.823410
15999  0  1 55.719870 55.732736 55.719761
16000  0  1 29.295793 27.823402 28.553121

