Generated by pymatgen.io.lammps.data.LammpsData

688  atoms

  2  atom types

0.000000 57.106240  xlo xhi
0.000000 57.106240  ylo yhi
0.000000 57.106240  zlo zhi
0.000000 0.000000 0.000000  xy xz yz

Masses

1  55.847000
2  30.973762

Atoms

2589   1  1 17.132507 25.711743 25.697576
2590   1  1 17.132856 25.712303 28.553245
2591   1  1 17.132277 25.711664 31.408892
2608   1  1 17.130758 28.566558 22.840329
2609   1  1 17.132338 28.567467 25.696881
2610   1  1 17.132988 28.568161 28.553396
2611   1  1 17.132159 28.567425 31.409767
2612   1  1 17.130456 28.566450 34.266159
2628   1  1 17.129927 31.423176 22.839680
2629   1  1 17.131385 31.423344 25.696353
2630   1  1 17.131879 31.422987 28.553386
2631   1  1 17.131275 31.423394 31.410302
2632   1  1 17.129659 31.423156 34.266844
2649   1  1 17.129981 34.279021 25.696652
2650   1  1 17.130281 34.278707 28.553139
2651   1  1 17.129816 34.279165 31.409685
2969   1  1 19.986824 22.855460 25.697804
2970   1  1 19.987249 22.856177 28.553896
2971   1  1 19.986736 22.855751 31.409379
2988   1  1 19.984061 25.709368 22.838564
2989   1  1 19.986963 25.711804 25.697507
2990   1  1 19.987796 25.713007 28.553821
2991   1  1 19.986537 25.711666 31.409808
2992   1  1 19.983841 25.708596 34.267973
3008   1  1 19.982970 28.566851 22.837557
3009   1  1 19.986605 28.568404 25.696112
3010   1  1 19.988964 28.570554 28.554184
3011   1  1 19.986269 28.568062 31.412067
3012   1  1 19.982630 28.565785 34.269708
3028   1  1 19.981618 31.425357 22.836433
3029   1  1 19.984965 31.425943 25.694710
3030   1  1 19.986699 31.423796 28.554193
3031   1  1 19.984511 31.426227 31.413601
3032   1  1 19.980854 31.425000 34.271304
3048   1  1 19.979888 34.283953 22.835564
3049   1  1 19.983448 34.280874 25.696444
3050   1  1 19.983743 34.280285 28.553176
3051   1  1 19.982496 34.281676 31.410314
3052   1  1 19.978685 34.284843 34.271818
3069   1  1 19.982635 37.136528 25.696226
3070   1  1 19.982718 37.136465 28.552733
3071   1  1 19.982048 37.137132 31.409574
3349   1  1 22.839962 19.997644 25.698158
3350   1  1 22.840799 19.998424 28.555457
3351   1  1 22.841218 19.998499 31.411372
3368   1  1 22.837083 22.852857 22.837343
3369   1  1 22.840801 22.855431 25.698460
3370   1  1 22.842497 22.856817 28.556651
3371   1  1 22.843514 22.858033 31.410711
3372   1  1 22.842260 22.855112 34.266510
3387   1  1 22.836464 25.709302 19.979137
3388   1  1 22.832331 25.706501 22.831697
3389   1  1 22.837897 25.708179 25.694494
3390   1  1 22.841495 25.712928 28.555032
3391   1  1 22.839388 25.710046 31.411985
3392   1  1 22.834694 25.703447 34.274256
3393   1  1 22.838594 25.707644 37.125527
3407   1  1 22.835323 28.568084 19.978340
3408   1  1 22.829920 28.567095 22.829378
3409   1  1 22.836059 28.568281 25.692159
3410   1  1 22.843363 28.577287 28.556103
3411   1  1 22.835829 28.566791 31.419193
3412   1  1 22.829879 28.562177 34.279199
3413   1  1 22.836966 28.565118 37.126753
3427   1  1 22.834794 31.426629 19.977969
3428   1  1 22.828727 31.428232 22.828286
3429   1  1 22.832651 31.435445 25.686257
3430   1  1 22.844488 31.421790 28.556323
3431   1  1 22.830077 31.438068 31.426883
3432   1  1 22.824608 31.428874 34.284169
3433   1  1 22.834895 31.424702 37.128493
3447   1  1 22.835394 34.283954 19.977978
3448   1  1 22.826411 34.292830 22.825164
3449   1  1 22.836928 34.282322 25.698792
3450   1  1 22.836014 34.283253 28.552963
3451   1  1 22.832487 34.286700 31.409741
3452   1  1 22.820061 34.298887 34.287191
3453   1  1 22.833504 34.285519 37.130320
3468   1  1 22.835309 37.139189 22.835390
3469   1  1 22.838326 37.135754 25.696152
3470   1  1 22.838755 37.135654 28.552956
3471   1  1 22.837195 37.137003 31.410293
3472   1  1 22.833952 37.140735 34.272030
3489   1  1 22.840205 39.989198 25.696519
3490   1  1 22.840452 39.988963 28.552981
3491   1  1 22.839929 39.989497 31.409627
3729   1  1 25.698574 17.144952 25.697369
3730   1  1 25.699276 17.145428 28.553493
3731   1  1 25.698949 17.145032 31.409349
3748   1  1 25.694963 19.994130 22.835981
3749   1  1 25.695397 19.997139 25.696132
3750   1  1 25.697234 19.998182 28.555496
3751   1  1 25.698007 19.998518 31.411956
3752   1  1 25.696883 19.998412 34.267616
3767   1  1 25.694831 22.849357 19.978591
3768   1  1 25.671975 22.830165 22.814725
3769   1  1 25.676135 22.837029 25.694725
3770   1  1 25.684520 22.842449 28.566167
3771   1  1 25.696358 22.854988 31.411230
3772   1  1 25.693627 22.850720 34.271048
3773   1  1 25.696036 22.851744 37.124440
3787   1  1 25.694796 25.709697 19.980303
3788   1  1 25.679828 25.712491 22.821355
3789   1  1 25.688281 25.712825 25.692017
3790   1  1 25.709576 25.731305 28.556125
3791   1  1 25.712834 25.727966 31.400798
3792   1  1 25.696874 25.709012 34.272296
3793   1  1 25.696660 25.708781 37.124676
3806   1  1 25.696952 28.566666 17.129181
3807   1  1 25.694150 28.568792 19.980553
3808   1  1 25.678983 28.577213 22.821361
3809   1  1 25.659886 28.541649 25.669975
3810   1  1 25.621583 28.585281 28.556844
3811   1  1 25.655653 28.535500 31.452633
3812   1  1 25.687774 28.564852 34.277989
3813   1  1 25.694579 28.566544 37.124971
3814   1  1 25.696564 28.566295 39.977258
3826   1  1 25.696593 31.423303 17.128807
3827   1  1 25.694245 31.426677 19.980384
3828   1  1 25.687862 31.430225 22.830671
3829   1  1 25.631045 31.487686 25.623720
3830   1  1 25.750130 31.368088 28.563688
3831   1  1 25.602375 31.516928 31.514934
3832   1  1 25.678460 31.440721 34.286466
3833   1  1 25.692306 31.426757 37.126915
3834   1  1 25.695903 31.423211 39.977786
3847   1  1 25.695155 34.282431 19.980020
3848   1  1 25.690776 34.290524 22.826397
3849   1  1 25.683776 34.286621 25.685562
3850   1  1 25.696431 34.275858 28.556170
3851   1  1 25.679334 34.291197 31.428333
3852   1  1 25.689142 34.295568 34.285040
3853   1  1 25.694077 34.284398 37.128721
3868   1  1 25.694145 37.137251 22.835818
3869   1  1 25.693411 37.134119 25.694126
3870   1  1 25.695155 37.132868 28.553923
3871   1  1 25.692354 37.135448 31.413912
3872   1  1 25.693778 37.138865 34.271594
3888   1  1 25.696106 39.989220 22.839595
3889   1  1 25.695927 39.987721 25.696122
3890   1  1 25.696178 39.987360 28.553189
3891   1  1 25.695670 39.988094 31.410260
3892   1  1 25.695964 39.989690 34.266900
4128   1  1 28.553937 17.143918 22.840308
4129   1  1 28.554346 17.145381 25.696496
4130   1  1 28.555196 17.146147 28.552609
4131   1  1 28.554547 17.145100 31.409829
4132   1  1 28.553677 17.143567 34.266302
4148   1  1 28.555752 19.998014 22.839119
4149   1  1 28.552705 20.000498 25.693328
4150   1  1 28.556528 20.001195 28.551886
4151   1  1 28.555022 19.999141 31.411895
4152   1  1 28.553427 19.997932 34.268342
4167   1  1 28.555669 22.853048 19.982910
4168   1  1 28.569259 22.858016 22.843161
4169   1  1 28.534533 22.849544 25.677930
4170   1  1 28.554873 22.843681 28.557834
4171   1  1 28.555337 22.855706 31.410138
4172   1  1 28.552509 22.850580 34.271102
4173   1  1 28.553184 22.851399 37.124656
4186   1  1 28.553547 25.709545 17.129612
4187   1  1 28.552076 25.707047 19.984692
4188   1  1 28.533301 25.693039 22.835000
4189   1  1 28.270266 25.597851 25.589546
4190   1  1 28.564599 25.643388 28.520476
4191   1  1 28.529929 25.689840 31.427411
4192   1  1 28.552354 25.707359 34.271635
4193   1  1 28.553577 25.708909 37.123557
4194   1  1 28.553499 25.709539 39.976984
4206   1  1 28.553656 28.565685 17.130184
4207   1  1 28.554197 28.565467 19.984867
4208   1  1 28.548658 28.574199 22.831289
4209   1  1 28.570357 28.537413 25.731563
4210   1  1 27.930516 29.148344 28.645930
4211   1  1 28.529194 28.597857 31.444568
4212   1  1 28.549780 28.571383 34.274425
4213   1  1 28.552249 28.567336 37.123444
4214   1  1 28.553015 28.566181 39.976708
4226   1  1 28.553243 31.422538 17.129322
4227   1  1 28.553931 31.424170 19.983012
4228   1  1 28.556491 31.423268 22.838768
4229   1  1 28.568269 31.467450 25.654481
4230   1  1 28.517523 31.495406 28.569272
4231   1  1 28.584495 31.471719 31.459111
4232   1  1 28.554647 31.433246 34.279155
4233   1  1 28.552588 31.424962 37.125285
4234   1  1 28.552832 31.422636 39.977322
4247   1  1 28.554193 34.280613 19.981711
4248   1  1 28.555237 34.286671 22.830514
4249   1  1 28.550375 34.282968 25.690778
4250   1  1 28.540089 34.277538 28.557644
4251   1  1 28.552288 34.285628 31.420618
4252   1  1 28.556221 34.291207 34.280712
4253   1  1 28.553617 34.282663 37.127246
4268   1  1 28.553016 37.135690 22.837327
4269   1  1 28.550921 37.132254 25.695690
4270   1  1 28.548408 37.130523 28.554231
4271   1  1 28.551053 37.133553 31.412233
4272   1  1 28.553135 37.137224 34.270035
4288   1  1 28.552685 39.988407 22.840292
4289   1  1 28.551762 39.986748 25.696730
4290   1  1 28.551013 39.986201 28.553264
4291   1  1 28.551769 39.987149 31.409687
4292   1  1 28.552747 39.988864 34.266212
4528   1  1 31.409976 17.143085 22.839618
4529   1  1 31.410737 17.144555 25.695991
4530   1  1 31.409693 17.145099 28.552826
4531   1  1 31.409823 17.144200 31.410412
4532   1  1 31.410004 17.142831 34.266975
4548   1  1 31.409761 19.996096 22.837297
4549   1  1 31.415838 19.998760 25.692208
4550   1  1 31.410548 19.999273 28.552589
4551   1  1 31.410943 19.997529 31.413244
4552   1  1 31.411046 19.996592 34.269559
4567   1  1 31.409659 22.851394 19.981547
4568   1  1 31.398675 22.850914 22.836626
4569   1  1 31.445183 22.844044 25.673497
4570   1  1 31.414963 22.846208 28.559081
4571   1  1 31.414667 22.852433 31.414158
4572   1  1 31.411494 22.848677 34.273011
4573   1  1 31.411208 22.850438 37.125463
4586   1  1 31.410344 25.709035 17.129368
4587   1  1 31.414643 25.706030 19.984386
4588   1  1 31.441207 25.690386 22.834231
4589   1  1 31.769923 25.550046 25.547073
4590   1  1 31.377834 25.749784 28.514760
4591   1  1 31.437767 25.679500 31.443468
4592   1  1 31.413599 25.705536 34.272983
4593   1  1 31.410905 25.708205 37.123937
4594   1  1 31.409985 25.709147 39.977209
4606   1  1 31.409343 28.565318 17.129719
4607   1  1 31.409665 28.564510 19.984357
4608   1  1 31.413900 28.570359 22.835213
4609   1  1 31.366663 28.517951 25.762725
4610   1  1 31.613278 28.601957 28.583636
4611   1  1 31.434977 28.592069 31.428835
4612   1  1 31.413953 28.567959 34.272634
4613   1  1 31.410707 28.565801 37.123848
4614   1  1 31.409675 28.565672 39.977051
4627   1  1 31.409768 31.422862 19.982795
4628   1  1 31.409325 31.416755 22.842338
4629   1  1 31.405847 31.425328 25.690945
4630   1  1 31.406607 31.416105 28.566503
4631   1  1 31.395698 31.417744 31.410134
4632   1  1 31.411754 31.425135 34.275000
4633   1  1 31.410571 31.422996 37.125338
4647   1  1 31.410962 34.279578 19.982254
4648   1  1 31.414147 34.283898 22.833236
4649   1  1 31.410213 34.281175 25.695206
4650   1  1 31.408845 34.278774 28.555823
4651   1  1 31.410499 34.282186 31.412964
4652   1  1 31.415904 34.286812 34.276160
4653   1  1 31.411439 34.281150 37.126179
4668   1  1 31.410052 37.134795 22.838585
4669   1  1 31.407390 37.132018 25.697312
4670   1  1 31.406604 37.131420 28.553597
4671   1  1 31.407917 37.133165 31.409717
4672   1  1 31.410695 37.135988 34.268254
4689   1  1 31.407421 39.986661 25.697504
4690   1  1 31.406913 39.986330 28.553112
4691   1  1 31.407592 39.986986 31.408791
4929   1  1 34.266300 17.142526 25.696644
4930   1  1 34.265635 17.142827 28.553868
4931   1  1 34.265594 17.142525 31.410337
4948   1  1 34.272994 19.989726 22.831204
4949   1  1 34.271378 19.992986 25.695951
4950   1  1 34.269423 19.993780 28.557071
4951   1  1 34.267357 19.995139 31.413498
4952   1  1 34.269058 19.994343 34.270318
4967   1  1 34.272684 22.845136 19.975404
4968   1  1 34.307637 22.812346 22.798511
4969   1  1 34.295817 22.826713 25.696538
4970   1  1 34.285957 22.833899 28.570531
4971   1  1 34.267854 22.851699 31.411065
4972   1  1 34.272422 22.845903 34.275483
4973   1  1 34.269456 22.849387 37.127054
4987   1  1 34.270941 25.708399 19.978802
4988   1  1 34.293422 25.710514 22.815213
4989   1  1 34.301688 25.686353 25.675215
4990   1  1 34.276476 25.706029 28.556759
4991   1  1 34.276579 25.697179 31.423274
4992   1  1 34.271519 25.705993 34.274394
4993   1  1 34.268724 25.707487 37.125707
5007   1  1 34.268457 28.568486 19.980169
5008   1  1 34.281506 28.581156 22.824389
5009   1  1 34.273118 28.563967 25.696895
5010   1  1 34.274743 28.565284 28.556897
5011   1  1 34.274058 28.564991 31.420443
5012   1  1 34.270529 28.566558 34.273249
5013   1  1 34.268064 28.565766 37.125137
5027   1  1 34.266463 31.424042 19.982107
5028   1  1 34.262811 31.419046 22.841935
5029   1  1 34.270239 31.428423 25.687530
5030   1  1 34.270204 31.427252 28.552276
5031   1  1 34.276946 31.434562 31.423547
5032   1  1 34.270523 31.427442 34.273723
5033   1  1 34.267787 31.423363 37.125147
5048   1  1 34.265101 34.277932 22.838103
5049   1  1 34.262948 34.276683 25.696221
5050   1  1 34.263057 34.276407 28.553525
5051   1  1 34.264626 34.278259 31.411920
5052   1  1 34.265026 34.278854 34.268291
5069   1  1 34.263639 37.132348 25.697265
5070   1  1 34.263382 37.132023 28.553114
5071   1  1 34.264085 37.132948 31.409209
5349   1  1 37.126978 19.992217 25.697670
5350   1  1 37.126083 19.993001 28.556488
5351   1  1 37.125212 19.993816 31.413118
5368   1  1 37.130767 22.844972 22.831392
5369   1  1 37.127734 22.847561 25.696432
5370   1  1 37.126847 22.848793 28.557658
5371   1  1 37.124708 22.851022 31.413523
5372   1  1 37.125725 22.848656 34.271460
5388   1  1 37.127348 25.708745 22.834206
5389   1  1 37.124193 25.704705 25.692665
5390   1  1 37.123153 25.707706 28.554965
5391   1  1 37.123560 25.707243 31.414568
5392   1  1 37.124240 25.707201 34.271147
5408   1  1 37.125042 28.568707 22.836613
5409   1  1 37.122006 28.565113 25.696177
5410   1  1 37.119691 28.564656 28.554367
5411   1  1 37.121604 28.565272 31.413095
5412   1  1 37.123208 28.565529 34.270139
5428   1  1 37.121623 31.423357 22.839200
5429   1  1 37.120955 31.422735 25.695931
5430   1  1 37.120165 31.421939 28.553542
5431   1  1 37.121822 31.423130 31.412202
5432   1  1 37.122718 31.423143 34.269087
5449   1  1 37.119832 34.277321 25.696568
5450   1  1 37.119536 34.277182 28.552853
5451   1  1 37.120593 34.277832 31.409494
5769   1  1 39.977082 22.852678 25.696722
5770   1  1 39.976894 22.853198 28.554053
5771   1  1 39.977166 22.853146 31.410590
5788   1  1 39.976892 25.709134 22.839342
5789   1  1 39.975280 25.708672 25.696252
5790   1  1 39.975113 25.709229 28.553694
5791   1  1 39.975552 25.709198 31.410803
5792   1  1 39.976805 25.709050 34.267227
5808   1  1 39.976146 28.565946 22.840219
5809   1  1 39.974551 28.565011 25.696998
5810   1  1 39.973766 28.564670 28.553421
5811   1  1 39.974521 28.565125 31.410097
5812   1  1 39.976056 28.565597 34.266581
5829   1  1 39.974465 31.420921 25.697374
5830   1  1 39.973953 31.420403 28.553323
5831   1  1 39.974441 31.420880 31.409340
10189  1  1 15.705193 27.139732 27.125332
10190  1  1 15.705115 27.139713 29.981022
10209  1  1 15.704792 29.995042 27.124994
10210  1  1 15.704738 29.995056 29.981434
10229  1  1 15.703763 32.850340 27.125008
10230  1  1 15.703719 32.850374 29.981330
10568  1  1 18.559018 24.282973 24.269307
10569  1  1 18.560030 24.284118 27.125654
10570  1  1 18.559809 24.284137 29.981122
10571  1  1 18.558770 24.282831 32.837221
10588  1  1 18.558880 27.138958 24.268425
10589  1  1 18.560687 27.140763 27.125622
10590  1  1 18.560460 27.140713 29.981503
10591  1  1 18.558457 27.138689 32.838408
10607  1  1 18.555787 29.994754 21.410250
10608  1  1 18.558112 29.995749 24.267550
10609  1  1 18.559973 29.996286 27.124697
10610  1  1 18.559911 29.996289 29.982806
10611  1  1 18.557746 29.995550 32.839645
10612  1  1 18.555437 29.994487 35.696368
10628  1  1 18.556545 32.852933 24.266822
10629  1  1 18.558164 32.851368 27.124990
10630  1  1 18.557970 32.851537 29.981920
10631  1  1 18.556112 32.853098 32.840093
10649  1  1 18.556258 35.707709 27.124789
10650  1  1 18.556062 35.707887 29.981190
10949  1  1 21.414760 21.428383 27.126612
10950  1  1 21.414974 21.428603 29.982642
10968  1  1 21.411482 24.281539 24.267597
10969  1  1 21.414458 24.283814 27.126615
10970  1  1 21.414376 24.284307 29.982206
10971  1  1 21.412712 24.281826 32.838968
10987  1  1 21.407510 27.137280 21.406602
10988  1  1 21.410335 27.138225 24.265464
10989  1  1 21.415413 27.141821 27.126123
10990  1  1 21.415039 27.141996 29.982514
10991  1  1 21.410035 27.136478 32.842480
10992  1  1 21.407919 27.134992 35.700078
11006  1  1 21.409652 29.995048 18.553113
11007  1  1 21.405983 29.996380 21.405312
11008  1  1 21.408865 29.997537 24.263803
11009  1  1 21.414599 29.999588 27.122873
11010  1  1 21.414507 29.999742 29.987685
11011  1  1 21.408035 29.996734 32.845755
11012  1  1 21.405684 29.994233 35.702218
11013  1  1 21.410025 29.994229 38.552870
11027  1  1 21.404930 32.855504 21.404307
11028  1  1 21.406152 32.858876 24.261715
11029  1  1 21.412425 32.852232 27.126438
11030  1  1 21.411376 32.853276 29.982020
11031  1  1 21.403721 32.860768 32.847774
11032  1  1 21.403025 32.856027 35.704405
11047  1  1 21.404719 35.714445 21.404058
11048  1  1 21.408486 35.710693 24.266837
11049  1  1 21.409650 35.709559 27.124562
11050  1  1 21.408724 35.710470 29.980991
11051  1  1 21.406256 35.712854 32.840130
11052  1  1 21.402448 35.716607 35.704270
11069  1  1 21.411447 38.562958 27.124656
11070  1  1 21.411216 38.563220 29.981102
11328  1  1 24.268975 18.570528 24.268844
11329  1  1 24.270110 18.571674 27.126092
11330  1  1 24.270478 18.571753 29.982466
11331  1  1 24.270007 18.571487 32.838191
11348  1  1 24.261166 21.419325 24.266263
11349  1  1 24.263586 21.421642 27.128929
11350  1  1 24.265660 21.423383 29.987464
11351  1  1 24.269020 21.426787 32.839238
11367  1  1 24.261678 24.280744 21.402896
11368  1  1 24.263180 24.279174 24.261794
11369  1  1 24.270714 24.285174 27.130043
11370  1  1 24.273886 24.290524 29.983114
11371  1  1 24.273708 24.287439 32.836588
11372  1  1 24.268375 24.280362 35.697619
11386  1  1 24.267423 27.138555 18.554414
11387  1  1 24.259234 27.140181 21.401257
11388  1  1 24.251658 27.131532 24.250806
11389  1  1 24.261895 27.134280 27.121260
11390  1  1 24.265443 27.136711 29.987709
11391  1  1 24.253675 27.124254 32.856882
11392  1  1 24.264613 27.134907 35.701000
11393  1  1 24.267853 27.137375 38.551341
11406  1  1 24.266807 29.996253 18.554176
11407  1  1 24.259082 30.001237 21.401553
11408  1  1 24.249277 29.996270 24.248959
11409  1  1 24.263706 30.014382 27.104771
11410  1  1 24.262756 30.015675 30.014772
11411  1  1 24.243027 29.995247 32.869342
11412  1  1 24.261090 29.996143 35.703492
11413  1  1 24.266695 29.994931 38.551844
11426  1  1 24.266513 32.853444 18.553636
11427  1  1 24.261605 32.857519 21.403565
11428  1  1 24.239267 32.879897 24.237162
11429  1  1 24.270984 32.848394 27.138668
11430  1  1 24.264737 32.854657 29.972341
11431  1  1 24.225468 32.893488 32.883655
11432  1  1 24.256967 32.861952 35.708057
11433  1  1 24.265602 32.853456 38.553261
11447  1  1 24.263886 35.714185 21.403662
11448  1  1 24.260507 35.712925 24.261227
11449  1  1 24.266814 35.707082 27.125982
11450  1  1 24.265365 35.708533 29.981996
11451  1  1 24.257483 35.716314 32.848350
11452  1  1 24.262593 35.716427 35.704713
11468  1  1 24.266393 38.562518 24.266520
11469  1  1 24.267826 38.561066 27.124653
11470  1  1 24.267451 38.561485 29.981772
11471  1  1 24.265791 38.563410 32.840196
11489  1  1 24.268876 41.415428 27.124902
11490  1  1 24.268790 41.415517 29.981248
11709  1  1 27.126819 15.718008 27.125243
11710  1  1 27.126975 15.718044 29.980981
11728  1  1 27.125559 18.571314 24.267412
11729  1  1 27.126756 18.573159 27.124881
11730  1  1 27.127648 18.572982 29.981719
11731  1  1 27.126206 18.571715 32.838927
11747  1  1 27.130058 21.423926 21.409386
11748  1  1 27.117700 21.420185 24.257736
11749  1  1 27.122011 21.423400 27.124761
11750  1  1 27.125756 21.424134 29.985496
11751  1  1 27.125548 21.426736 32.839706
11752  1  1 27.124313 21.423436 35.697637
11766  1  1 27.125060 24.280467 18.555325
11767  1  1 27.117580 24.272104 21.404268
11768  1  1 27.053834 24.219273 24.202985
11769  1  1 27.084453 24.239121 27.143665
11770  1  1 27.121413 24.280926 29.980915
11771  1  1 27.117008 24.275516 32.846927
11772  1  1 27.124410 24.279352 35.698029
11773  1  1 27.125146 24.280726 38.550817
11786  1  1 27.125209 27.138101 18.556592
11787  1  1 27.121423 27.139504 21.406448
11788  1  1 27.097829 27.168135 24.230195
11789  1  1 27.160900 27.170546 27.143958
11790  1  1 27.191376 27.186778 29.942175
11791  1  1 27.124863 27.140479 32.849800
11792  1  1 27.124201 27.138273 35.698605
11793  1  1 27.124933 27.137968 38.550261
11806  1  1 27.125244 29.995235 18.556577
11807  1  1 27.121850 30.000218 21.406810
11808  1  1 27.118886 29.995944 24.257718
11809  1  1 27.019256 30.108186 26.851971
11810  1  1 26.974124 30.155101 30.338344
11811  1  1 27.101381 30.019532 32.877282
11812  1  1 27.119583 30.000050 35.700411
11813  1  1 27.123706 29.995486 38.550425
11826  1  1 27.124960 32.852255 18.555318
11827  1  1 27.124589 32.853981 21.407844
11828  1  1 27.120251 32.871220 24.243718
11829  1  1 27.104241 32.857129 27.105109
11830  1  1 27.100035 32.861574 30.018189
11831  1  1 27.122224 32.878935 32.871502
11832  1  1 27.122483 32.858661 35.704022
11833  1  1 27.124033 32.852515 38.551981
11846  1  1 27.125008 35.708358 18.554321
11847  1  1 27.124569 35.711891 21.405656
11848  1  1 27.121952 35.709909 24.262628
11849  1  1 27.119431 35.704926 27.122420
11850  1  1 27.118517 35.706044 29.988397
11851  1  1 27.121829 35.712369 32.846464
11852  1  1 27.124352 35.714149 35.702750
11853  1  1 27.124810 35.709312 38.553064
11867  1  1 27.124629 38.563204 21.410240
11868  1  1 27.123646 38.560825 24.267180
11869  1  1 27.122937 38.559179 27.124378
11870  1  1 27.122710 38.559567 29.982781
11871  1  1 27.123474 38.561844 32.839739
11872  1  1 27.124609 38.564021 35.696528
11889  1  1 27.124165 41.414381 27.124895
11890  1  1 27.124120 41.414481 29.981365
12109  1  1 29.982156 15.717845 27.124684
12110  1  1 29.982023 15.717729 29.981187
12127  1  1 29.981632 18.569194 21.410320
12128  1  1 29.982794 18.571855 24.268019
12129  1  1 29.983238 18.573972 27.122569
12130  1  1 29.982698 18.572724 29.981857
12131  1  1 29.982201 18.571146 32.839790
12132  1  1 29.981633 18.569545 35.695783
12146  1  1 29.981576 21.423923 18.554527
12147  1  1 29.981495 21.421260 21.406756
12148  1  1 29.984715 21.429611 24.269341
12149  1  1 29.986279 21.427651 27.114564
12150  1  1 29.984608 21.425308 29.985024
12151  1  1 29.982627 21.425812 32.840955
12152  1  1 29.981881 21.422428 35.698658
12153  1  1 29.981625 21.423801 38.551670
12166  1  1 29.982435 24.281186 18.556354
12167  1  1 29.984440 24.284231 21.415239
12168  1  1 29.991111 24.339666 24.323912
12169  1  1 29.996988 24.207881 27.092845
12170  1  1 29.993959 24.288832 29.982030
12171  1  1 29.980790 24.275645 32.847520
12172  1  1 29.982273 24.278977 35.698125
12173  1  1 29.982020 24.280313 38.550713
12186  1  1 29.982178 27.135789 18.558382
12187  1  1 29.983684 27.129596 21.413394
12188  1  1 29.983242 27.122628 24.191176
12189  1  1 30.068452 26.546642 26.493885
12190  1  1 30.002781 27.109513 30.181383
12191  1  1 29.983551 27.138598 32.851382
12192  1  1 29.982079 27.137901 35.696640
12193  1  1 29.981618 27.137663 38.549725
12206  1  1 29.981589 29.993898 18.556861
12207  1  1 29.982177 29.994733 21.410320
12208  1  1 29.982228 29.976202 24.279341
12209  1  1 29.946973 30.065057 27.135342
12210  1  1 29.941013 29.955925 29.952627
12211  1  1 29.982740 29.998460 32.852554
12212  1  1 29.981783 29.996011 35.699243
12213  1  1 29.981290 29.994374 38.550427
12226  1  1 29.981817 32.851312 18.555567
12227  1  1 29.983736 32.851392 21.410071
12228  1  1 29.991583 32.864536 24.253062
12229  1  1 29.982264 32.861481 27.125581
12230  1  1 29.983225 32.858108 29.987615
12231  1  1 29.995425 32.870434 32.860668
12232  1  1 29.984129 32.855875 35.702230
12233  1  1 29.981679 32.851512 38.551612
12247  1  1 29.983201 35.710261 21.407281
12248  1  1 29.981682 35.708280 24.265342
12249  1  1 29.977049 35.703780 27.126570
12250  1  1 29.977567 35.705006 29.982629
12251  1  1 29.982823 35.710581 32.843203
12252  1  1 29.983923 35.712137 35.700772
12268  1  1 29.980336 38.560173 24.268287
12269  1  1 29.978430 38.558354 27.125482
12270  1  1 29.978578 38.558856 29.981347
12271  1  1 29.980541 38.561040 32.838405
12289  1  1 29.979447 41.413978 27.125275
12290  1  1 29.979489 41.414090 29.980952
12509  1  1 32.837409 15.716661 27.125036
12510  1  1 32.837106 15.716639 29.981386
12528  1  1 32.840536 18.569182 24.265576
12529  1  1 32.839190 18.570670 27.124998
12530  1  1 32.837665 18.570564 29.982736
12531  1  1 32.838804 18.569510 32.840529
12547  1  1 32.836077 21.418262 21.403958
12548  1  1 32.853759 21.414259 24.252653
12549  1  1 32.846621 21.419259 27.126834
12550  1  1 32.840182 21.421390 29.986509
12551  1  1 32.841200 21.422993 32.842923
12552  1  1 32.840389 21.420628 35.700152
12566  1  1 32.840209 24.278858 18.554388
12567  1  1 32.852232 24.267590 21.401355
12568  1  1 32.940916 24.187868 24.174353
12569  1  1 32.884637 24.232893 27.159429
12570  1  1 32.835640 24.286397 29.971748
12571  1  1 32.850087 24.268028 32.853713
12572  1  1 32.841371 24.277300 35.699950
12573  1  1 32.839338 24.279679 38.551705
12586  1  1 32.838992 27.137363 18.555772
12587  1  1 32.844766 27.139024 21.406214
12588  1  1 32.877489 27.170812 24.226886
12589  1  1 32.866309 27.108572 27.103746
12590  1  1 32.853666 27.111047 30.010340
12591  1  1 32.845857 27.137065 32.850107
12592  1  1 32.840720 27.136497 35.698613
12593  1  1 32.838890 27.137001 38.550835
12606  1  1 32.837548 29.994269 18.555714
12607  1  1 32.838342 29.996370 21.408675
12608  1  1 32.825778 29.978076 24.282651
12609  1  1 32.851188 30.015291 27.100913
12610  1  1 32.869440 30.026438 30.014065
12611  1  1 32.847675 30.005337 32.851487
12612  1  1 32.840843 29.995411 35.699243
12613  1  1 32.838577 29.994053 38.551082
12627  1  1 32.837982 32.849131 21.411212
12628  1  1 32.836141 32.850538 24.265346
12629  1  1 32.833386 32.848321 27.126023
12630  1  1 32.837016 32.850553 29.986836
12631  1  1 32.834576 32.850892 32.841300
12632  1  1 32.839300 32.852028 35.699153
12648  1  1 32.837704 35.706744 24.267226
12649  1  1 32.835790 35.704858 27.125558
12650  1  1 32.836595 35.705659 29.982114
12651  1  1 32.837966 35.707744 32.839399
12668  1  1 32.836160 38.560125 24.269202
12669  1  1 32.835104 38.559203 27.125391
12670  1  1 32.835294 38.559481 29.980881
12671  1  1 32.836516 38.560656 32.837188
12929  1  1 35.695667 18.567693 27.126191
12930  1  1 35.695164 18.567855 29.983598
12947  1  1 35.709992 21.408571 21.394507
12948  1  1 35.707947 21.411512 24.264023
12949  1  1 35.705326 21.414136 27.130177
12950  1  1 35.702101 21.416999 29.990385
12951  1  1 35.696556 21.422362 32.841450
12952  1  1 35.698925 21.419797 35.700439
12967  1  1 35.707253 24.276908 21.397999
12968  1  1 35.709665 24.265287 24.252160
12969  1  1 35.703035 24.271753 27.128652
12970  1  1 35.699609 24.278429 29.986252
12971  1  1 35.699706 24.274472 32.846352
12972  1  1 35.698731 24.277774 35.700746
12986  1  1 35.695859 27.138102 18.553526
12987  1  1 35.703280 27.142189 21.401922
12988  1  1 35.701557 27.139957 24.260094
12989  1  1 35.697682 27.132873 27.122862
12990  1  1 35.696173 27.134818 29.987528
12991  1  1 35.697747 27.135276 32.845165
12992  1  1 35.697384 27.136665 35.699560
12993  1  1 35.695473 27.137434 38.551841
13007  1  1 35.699379 30.000828 21.405378
13008  1  1 35.695848 29.995010 24.267845
13009  1  1 35.694308 29.995456 27.123987
13010  1  1 35.695417 29.996421 29.986028
13011  1  1 35.697289 29.995352 32.844377
13012  1  1 35.696593 29.995021 35.698704
13028  1  1 35.694252 32.852100 24.264705
13029  1  1 35.693148 32.851143 27.123593
13030  1  1 35.694379 32.851995 29.982321
13031  1  1 35.697020 32.854428 32.843186
13049  1  1 35.690699 35.703931 27.124993
13050  1  1 35.691010 35.704201 29.981139
13349  1  1 38.551964 21.423093 27.126297
13350  1  1 38.551760 21.423445 29.983818
13368  1  1 38.551205 24.278608 24.265672
13369  1  1 38.549837 24.279710 27.125543
13370  1  1 38.550024 24.280623 29.983619
13371  1  1 38.550483 24.279639 32.841089
13387  1  1 38.551554 27.138224 21.409641
13388  1  1 38.549294 27.137313 24.267008
13389  1  1 38.547392 27.136080 27.124651
13390  1  1 38.547602 27.136869 29.983053
13391  1  1 38.549064 27.136935 32.840464
13392  1  1 38.550416 27.137376 35.696437
13408  1  1 38.548388 29.994098 24.268448
13409  1  1 38.546800 29.992999 27.125323
13410  1  1 38.546779 29.993044 29.982213
13411  1  1 38.548354 29.993594 32.839345
13428  1  1 38.548000 32.849767 24.268609
13429  1  1 38.547040 32.848969 27.125156
13430  1  1 38.547173 32.848991 29.981279
13431  1  1 38.548439 32.849976 32.838142
13769  1  1 41.402795 24.281707 27.125108
13770  1  1 41.402967 24.281855 29.981638
13789  1  1 41.401692 27.137121 27.125031
13790  1  1 41.401793 27.137299 29.981507
13809  1  1 41.401442 29.992608 27.125345
13810  1  1 41.401417 29.992612 29.981142
16000  1  1 29.553196 27.852490 28.113030

