Generated by pymatgen.io.lammps.data.LammpsData

1999  atoms

   2  atom types

0.000000 28.553120  xlo xhi
0.000000 28.553120  ylo yhi
0.000000 28.553120  zlo zhi
0.000000 0.000000 0.000000  xy xz yz

Masses

1  55.847000
2  30.973762

Atoms

1945  0  1 27.125539 12.848959 12.848849
2     0  1  0.010783  0.004083  2.854306
3     0  1  0.001026  0.001226  5.711363
1944  0  1 27.125513 12.849202  9.993364
1943  0  1 27.125484 12.849203  7.138134
11    0  1  0.005044  2.863405  0.005044
12    0  1 28.552055  2.855557  2.854996
13    0  1  0.000597  2.855144  5.710262
14    0  1  0.000324  2.855489  8.566074
15    0  1  0.000171  2.855374 11.421437
21    0  1  0.000884  5.711550  0.000884
22    0  1 28.552940  5.711154  2.855964
23    0  1 28.553061  5.710460  5.710579
24    0  1  0.000193  5.710476  8.565854
25    0  1  0.000175  5.710564 11.421397
1813  0  1 24.270183  4.282690  7.138403
32    0  1  0.000058  8.566157  2.855651
33    0  1 28.553068  8.566014  5.710805
34    0  1  0.000022  8.565872  8.565935
35    0  1  0.000092  8.565825 11.421345
1812  0  1 24.269513  4.281747  4.282496
42    0  1  0.000019 11.421347  2.855421
43    0  1 28.553090 11.421436  5.710666
44    0  1 28.553105 11.421452  8.565857
45    0  1  0.000027 11.421332 11.421192
101   0  1  2.854306  0.004083  0.010783
1942  0  1 27.125460 12.849029  4.282966
1941  0  1 27.125457 12.848859  1.427703
1935  0  1 27.125571  9.993402 12.849122
1934  0  1 27.125506  9.993555  9.993615
1811  0  1 24.272241  4.280399  1.426527
112   0  1  2.854430  2.855355  2.854430
113   0  1  2.856085  2.854706  5.709537
114   0  1  2.855552  2.855165  8.565632
115   0  1  2.855451  2.855278 11.421248
1805  0  1 24.270253  1.427555 12.849287
122   0  1  2.856087  5.711801  2.856087
123   0  1  2.855415  5.710613  5.710480
124   0  1  2.855509  5.710407  8.565659
125   0  1  2.855462  5.710532 11.421245
1804  0  1 24.270010  1.427798  9.994155
132   0  1  2.855588  8.566365  2.855588
133   0  1  2.855370  8.566186  5.710767
134   0  1  2.855356  8.565967  8.565876
135   0  1  2.855366  8.565874 11.421248
1803  0  1 24.269511  1.428297  7.139591
142   0  1  2.855345 11.421497  2.855345
143   0  1  2.855257 11.421598  5.710589
144   0  1  2.855234 11.421582  8.565784
145   0  1  2.855255 11.421424 11.421111
201   0  1  5.711363  0.001226  0.001026
1933  0  1 27.125423  9.993606  7.138354
1932  0  1 27.125427  9.993647  4.283164
1931  0  1 27.125567  9.993633  1.427881
1925  0  1 27.125613  7.138067 12.849242
1802  0  1 24.271168  1.426640  4.283145
212   0  1  5.709537  2.854706  2.856085
213   0  1  5.706779  2.851664  5.706779
214   0  1  5.709768  2.854361  8.564817
215   0  1  5.710512  2.855066 11.421001
1801  0  1 24.295463  1.402345  1.406188
222   0  1  5.710480  5.710613  2.855415
223   0  1  5.710084  5.710124  5.710084
224   0  1  5.710508  5.710163  8.565417
225   0  1  5.710631  5.710419 11.421099
1745  0  1 21.415083 12.848809 12.848999
232   0  1  5.710767  8.566186  2.855370
233   0  1  5.710682  8.566191  5.710682
234   0  1  5.710601  8.565968  8.565801
235   0  1  5.710604  8.565870 11.421168
1744  0  1 21.415071 12.848992  9.993496
242   0  1  5.710589 11.421598  2.855257
243   0  1  5.710518 11.421703  5.710518
244   0  1  5.710465 11.421655  8.565724
245   0  1  5.710486 11.421471 11.421058
1924  0  1 27.125576  7.138144  9.993662
1923  0  1 27.125405  7.138064  7.138266
1922  0  1 27.125274  7.138283  4.283279
1921  0  1 27.125585  7.138498  1.428173
1915  0  1 27.125629  4.282876 12.849226
1743  0  1 21.415035 12.848979  7.138213
312   0  1  8.565632  2.855165  2.855552
313   0  1  8.564817  2.854361  5.709768
314   0  1  8.564929  2.854650  8.564929
315   0  1  8.565617  2.855011 11.420856
1742  0  1 21.414945 12.848857  4.283037
322   0  1  8.565659  5.710407  2.855509
323   0  1  8.565417  5.710163  5.710508
324   0  1  8.565180  5.709837  8.565180
325   0  1  8.565702  5.710271 11.420969
1741  0  1 21.414902 12.848731  1.427797
332   0  1  8.565876  8.565967  2.855356
333   0  1  8.565801  8.565968  5.710601
334   0  1  8.565720  8.565831  8.565720
335   0  1  8.565820  8.565801 11.421119
1735  0  1 21.415112  9.993268 12.849261
342   0  1  8.565784 11.421582  2.855234
343   0  1  8.565724 11.421655  5.710465
344   0  1  8.565708 11.421603  8.565708
345   0  1  8.565752 11.421433 11.421059
1914  0  1 27.125650  4.283015  9.993804
1913  0  1 27.125657  4.282789  7.138250
1912  0  1 27.125002  4.282472  4.282934
1911  0  1 27.124573  4.283573  1.429016
1905  0  1 27.125579  1.427631 12.849137
1734  0  1 21.414994  9.993378  9.993660
412   0  1 11.421248  2.855278  2.855451
413   0  1 11.421001  2.855066  5.710512
414   0  1 11.420856  2.855011  8.565617
415   0  1 11.421036  2.855071 11.421036
1733  0  1 21.414967  9.993309  7.138209
422   0  1 11.421245  5.710532  2.855462
423   0  1 11.421099  5.710419  5.710631
424   0  1 11.420969  5.710271  8.565702
425   0  1 11.421110  5.710334 11.421110
1732  0  1 21.415086  9.993211  4.282856
432   0  1 11.421248  8.565874  2.855366
433   0  1 11.421168  8.565870  5.710604
434   0  1 11.421119  8.565801  8.565820
435   0  1 11.421152  8.565730 11.421152
1731  0  1 21.415188  9.993115  1.427665
442   0  1 11.421111 11.421424  2.855255
443   0  1 11.421058 11.421471  5.710486
444   0  1 11.421059 11.421433  8.565752
445   0  1 11.421120 11.421310 11.421120
1904  0  1 27.125540  1.427861  9.993947
1903  0  1 27.125778  1.428174  7.138944
1902  0  1 27.126663  1.427206  4.283347
1901  0  1 27.114815  1.426516  1.431873
1845  0  1 24.270321 12.848868 12.848940
1725  0  1 21.415133  7.137933 12.849445
512   0  1 14.276713  2.855232  2.855392
513   0  1 14.276647  2.855247  5.710653
514   0  1 14.276597  2.855205  8.565923
515   0  1 14.276659  2.855133 11.421336
1724  0  1 21.414997  7.138011  9.993758
522   0  1 14.276865  5.710406  2.855329
523   0  1 14.276769  5.710423  5.710563
524   0  1 14.276681  5.710430  8.565883
525   0  1 14.276708  5.710388 11.421346
1723  0  1 21.415090  7.137626  7.137953
532   0  1 14.276875  8.565656  2.855293
533   0  1 14.276782  8.565706  5.710527
534   0  1 14.276721  8.565719  8.565829
535   0  1 14.276708  8.565708 11.421296
1722  0  1 21.415830  7.137027  4.282151
542   0  1 14.276658 11.421150  2.855277
543   0  1 14.276599 11.421209  5.710515
544   0  1 14.276589 11.421219  8.565808
545   0  1 14.276637 11.421171 11.421217
1844  0  1 24.270305 12.849085  9.993446
1843  0  1 24.270269 12.849075  7.138196
1842  0  1 24.270206 12.848923  4.283022
1841  0  1 24.270152 12.848798  1.427776
1835  0  1 24.270343  9.993321 12.849214
1721  0  1 21.416065  7.136891  1.427378
612   0  1 17.132342  2.854979  2.855182
613   0  1 17.132281  2.855268  5.710524
614   0  1 17.132175  2.855258  8.565934
615   0  1 17.132117  2.855145 11.421518
1715  0  1 21.415080  4.282728 12.849493
622   0  1 17.132777  5.709855  2.855045
623   0  1 17.132636  5.710018  5.710167
624   0  1 17.132297  5.710364  8.565805
625   0  1 17.132164  5.710380 11.421509
1714  0  1 21.414916  4.282892  9.993981
632   0  1 17.132625  8.565183  2.855146
633   0  1 17.132483  8.565325  5.710330
634   0  1 17.132331  8.565477  8.565692
635   0  1 17.132173  8.565635 11.421402
1713  0  1 21.415514  4.282294  7.137915
642   0  1 17.132152 11.420933  2.855293
643   0  1 17.132102 11.421026  5.710527
644   0  1 17.132089 11.421087  8.565829
645   0  1 17.132100 11.421100 11.421296
1834  0  1 24.270232  9.993458  9.993664
1833  0  1 24.270136  9.993455  7.138322
1832  0  1 24.270147  9.993458  4.283068
1831  0  1 24.270298  9.993449  1.427786
1712  0  1 21.418819  4.278989  4.279454
712   0  1 19.989084  2.853762  2.854093
713   0  1 19.988133  2.855223  5.710107
714   0  1 19.987454  2.855229  8.566037
715   0  1 19.987338  2.855163 11.421664
1711  0  1 21.418530  4.279278  1.426931
722   0  1 19.989226  5.708582  2.854541
723   0  1 19.988995  5.708813  5.709098
724   0  1 19.987648  5.710160  8.565776
725   0  1 19.987404  5.710404 11.421648
1705  0  1 21.415009  1.427467 12.849388
732   0  1 19.987953  8.565031  2.855045
733   0  1 19.987790  8.565172  5.710167
734   0  1 19.987444  8.565511  8.565805
735   0  1 19.987428  8.565644 11.421509
1704  0  1 21.414831  1.427580  9.993976
742   0  1 19.987402 11.420943  2.855329
743   0  1 19.987385 11.421039  5.710563
744   0  1 19.987378 11.421127  8.565883
745   0  1 19.987420 11.421100 11.421346
1825  0  1 24.270364  7.137994 12.849372
1824  0  1 24.270242  7.138086  9.993757
1823  0  1 24.270089  7.137868  7.138197
1822  0  1 24.270046  7.137842  4.282955
1703  0  1 21.415118  1.427625  7.138403
812   0  1 22.852067  2.845741  2.846847
813   0  1 22.843451  2.854357  5.710182
814   0  1 22.842356  2.855452  8.566542
815   0  1 22.842533  2.855275 11.421742
1702  0  1 21.416061  1.428295  4.282496
822   0  1 22.844046  5.708724  2.854093
823   0  1 22.842585  5.709675  5.710107
824   0  1 22.842579  5.710354  8.566037
825   0  1 22.842645  5.710470 11.421664
1701  0  1 21.417409  1.425567  1.426527
832   0  1 22.842829  8.565466  2.855182
833   0  1 22.842540  8.565527  5.710524
834   0  1 22.842550  8.565633  8.565934
835   0  1 22.842663  8.565691 11.421518
1645  0  1 18.559790 12.848799 12.849009
842   0  1 22.842576 11.421095  2.855392
843   0  1 22.842561 11.421161  5.710653
844   0  1 22.842603 11.421211  8.565923
845   0  1 22.842675 11.421149 11.421336
1821  0  1 24.270603  7.137885  1.427695
902   0  1 25.697149  0.000659  2.859229
903   0  1 25.695842  0.001966  5.713726
1815  0  1 24.270341  4.282799 12.849388
1814  0  1 24.270228  4.282977  9.993976
911   0  1 25.698783  2.852110  0.002767
912   0  1 25.694969  2.854267  2.856003
913   0  1 25.697946  2.855031  5.710882
914   0  1 25.697906  2.855512  8.566412
915   0  1 25.697910  2.855349 11.421613
921   0  1 25.698360  5.710624  0.000646
922   0  1 25.697426  5.710394  2.855740
923   0  1 25.697571  5.710104  5.710503
924   0  1 25.697886  5.710446  8.566010
925   0  1 25.697957  5.710533 11.421552
1644  0  1 18.559769 12.848931  9.993509
932   0  1 25.697805  8.565889  2.855562
933   0  1 25.697688  8.565787  5.710741
934   0  1 25.697803  8.565753  8.565966
935   0  1 25.697929  8.565757 11.421447
1643  0  1 18.559715 12.848891  7.138220
942   0  1 25.697822 11.421220  2.855446
943   0  1 25.697801 11.421287  5.710696
944   0  1 25.697846 11.421320  8.565912
945   0  1 25.697913 11.421232 11.421276
1001  0  1  1.428450  1.431439  1.428450
1002  0  1  1.430629  1.428213  4.282057
1003  0  1  1.428172  1.427950  7.138184
1004  0  1  1.427793  1.427772  9.993679
1005  0  1  1.427776  1.427656 12.849010
1011  0  1  1.429756  4.285936  1.429756
1012  0  1  1.427652  4.283092  4.282821
1013  0  1  1.428027  4.282713  7.137894
1014  0  1  1.427910  4.282951  9.993577
1015  0  1  1.427797  4.282906 12.849077
1021  0  1  1.428169  7.138926  1.428169
1022  0  1  1.427692  7.138622  4.283302
1023  0  1  1.427712  7.138220  7.138236
1024  0  1  1.427795  7.138176  9.993543
1025  0  1  1.427752  7.138122 12.849110
1031  0  1  1.427826  9.993766  1.427826
1032  0  1  1.427688  9.993823  4.283139
1033  0  1  1.427641  9.993762  7.138323
1034  0  1  1.427669  9.993657  9.993547
1035  0  1  1.427685  9.993486 12.849022
1041  0  1  1.427635 12.848996  1.427635
1042  0  1  1.427571 12.849198  4.282868
1043  0  1  1.427553 12.849366  7.138033
1044  0  1  1.427580 12.849328  9.993267
1045  0  1  1.427628 12.849055 12.848753
1101  0  1  4.282057  1.428213  1.430629
1102  0  1  4.273531  1.419057  4.273531
1103  0  1  4.281552  1.426303  7.136514
1104  0  1  4.282769  1.427392  9.993256
1105  0  1  4.283022  1.427602 12.848885
1111  0  1  4.282821  4.283092  1.427652
1112  0  1  4.282147  4.282392  4.282147
1113  0  1  4.283013  4.282317  7.137465
1114  0  1  4.283058  4.282734  9.993317
1115  0  1  4.283037  4.282863 12.848951
1121  0  1  4.283302  7.138622  1.427692
1122  0  1  4.283242  7.138752  4.283242
1123  0  1  4.283019  7.138247  7.138144
1124  0  1  4.283048  7.138144  9.993423
1125  0  1  4.282995  7.138133 12.849001
1131  0  1  4.283139  9.993823  1.427688
1132  0  1  4.283065  9.993952  4.283065
1133  0  1  4.282953  9.993874  7.138260
1134  0  1  4.282935  9.993728  9.993481
1135  0  1  4.282923  9.993546 12.848939
1141  0  1  4.282868 12.849198  1.427571
1142  0  1  4.282780 12.849392  4.282780
1143  0  1  4.282716 12.849518  7.137935
1144  0  1  4.282753 12.849425  9.993190
1145  0  1  4.282839 12.849127 12.848681
1201  0  1  7.138184  1.427950  1.428172
1202  0  1  7.136514  1.426303  4.281552
1203  0  1  7.136372  1.426751  7.136372
1204  0  1  7.137645  1.427255  9.992821
1205  0  1  7.138196  1.427539 12.848733
1211  0  1  7.137894  4.282713  1.428027
1212  0  1  7.137465  4.282317  4.283013
1213  0  1  7.136603  4.281308  7.136603
1214  0  1  7.137808  4.282377  9.992962
1215  0  1  7.138213  4.282773 12.848829
1221  0  1  7.138236  7.138220  1.427712
1222  0  1  7.138144  7.138247  4.283019
1223  0  1  7.137950  7.137986  7.137950
1224  0  1  7.138154  7.138015  9.993301
1225  0  1  7.138220  7.138093 12.848917
1231  0  1  7.138323  9.993762  1.427641
1232  0  1  7.138260  9.993874  4.282953
1233  0  1  7.138194  9.993858  7.138194
1234  0  1  7.138170  9.993719  9.993434
1235  0  1  7.138178  9.993556 12.848890
1241  0  1  7.138033 12.849366  1.427553
1242  0  1  7.137935 12.849518  4.282716
1243  0  1  7.137906 12.849564  7.137906
1244  0  1  7.137952 12.849434  9.993176
1245  0  1  7.138077 12.849142 12.848666
1301  0  1  9.993679  1.427772  1.427793
1302  0  1  9.993256  1.427392  4.282769
1303  0  1  9.992821  1.427255  7.137645
1304  0  1  9.992973  1.427356  9.992973
1305  0  1  9.993446  1.427503 12.848723
1311  0  1  9.993577  4.282951  1.427910
1312  0  1  9.993317  4.282734  4.283058
1313  0  1  9.992962  4.282377  7.137808
1314  0  1  9.993115  4.282540  9.993115
1315  0  1  9.993496  4.282737 12.848816
1321  0  1  9.993543  7.138176  1.427795
1322  0  1  9.993423  7.138144  4.283048
1323  0  1  9.993301  7.138015  7.138154
1324  0  1  9.993267  7.137902  9.993267
1325  0  1  9.993509  7.138039 12.848877
1331  0  1  9.993547  9.993657  1.427669
1332  0  1  9.993481  9.993728  4.282935
1333  0  1  9.993434  9.993719  7.138170
1334  0  1  9.993425  9.993612  9.993425
1335  0  1  9.993498  9.993506 12.848890
1341  0  1  9.993267 12.849328  1.427580
1342  0  1  9.993190 12.849425  4.282753
1343  0  1  9.993176 12.849434  7.137952
1344  0  1  9.993253 12.849305  9.993253
1345  0  1  9.993400 12.849077 12.848731
1401  0  1 12.849010  1.427656  1.427776
1402  0  1 12.848885  1.427602  4.283022
1403  0  1 12.848733  1.427539  7.138196
1404  0  1 12.848723  1.427503  9.993446
1405  0  1 12.848940  1.427487 12.848940
1411  0  1 12.849077  4.282906  1.427797
1412  0  1 12.848951  4.282863  4.283037
1413  0  1 12.848829  4.282773  7.138213
1414  0  1 12.848816  4.282737  9.993496
1415  0  1 12.848999  4.282725 12.848999
1421  0  1 12.849110  7.138122  1.427752
1422  0  1 12.849001  7.138133  4.282995
1423  0  1 12.848917  7.138093  7.138220
1424  0  1 12.848877  7.138039  9.993509
1425  0  1 12.849009  7.138018 12.849009
1431  0  1 12.849022  9.993486  1.427685
1432  0  1 12.848939  9.993546  4.282923
1433  0  1 12.848890  9.993556  7.138178
1434  0  1 12.848890  9.993506  9.993498
1435  0  1 12.848961  9.993427 12.848961
1441  0  1 12.848753 12.849055  1.427628
1442  0  1 12.848681 12.849127  4.282839
1443  0  1 12.848666 12.849142  7.138077
1444  0  1 12.848731 12.849077  9.993400
1445  0  1 12.848854 12.848954 12.848854
1501  0  1 15.704359  1.427510  1.427786
1502  0  1 15.704350  1.427661  4.283068
1503  0  1 15.704353  1.427672  7.138322
1504  0  1 15.704350  1.427576  9.993664
1505  0  1 15.704487  1.427465 12.849214
1511  0  1 15.704693  4.282620  1.427665
1512  0  1 15.704597  4.282722  4.282856
1513  0  1 15.704499  4.282841  7.138209
1514  0  1 15.704430  4.282814  9.993660
1515  0  1 15.704540  4.282696 12.849261
1521  0  1 15.704875  7.137722  1.427632
1522  0  1 15.704743  7.137827  4.282801
1523  0  1 15.704629  7.137912  7.138061
1524  0  1 15.704479  7.138030  9.993591
1525  0  1 15.704539  7.137962 12.849223
1531  0  1 15.704664  9.993144  1.427658
1532  0  1 15.704562  9.993246  4.282861
1533  0  1 15.704488  9.993320  7.138124
1534  0  1 15.704446  9.993362  9.993520
1535  0  1 15.704478  9.993330 12.849100
1541  0  1 15.704322 12.848786  1.427685
1542  0  1 15.704262 12.848869  4.282923
1543  0  1 15.704252 12.848918  7.138178
1544  0  1 15.704302 12.848918  9.993498
1545  0  1 15.704381 12.848847 12.848961
1601  0  1 18.559923  1.427205  1.427695
1602  0  1 18.559966  1.427762  4.282955
1603  0  1 18.559940  1.427719  7.138197
1604  0  1 18.559722  1.427566  9.993757
1605  0  1 18.559814  1.427444 12.849372
1611  0  1 18.560917  4.281743  1.427378
1612  0  1 18.560781  4.281978  4.282151
1613  0  1 18.560182  4.282718  7.137953
1614  0  1 18.559797  4.282811  9.993758
1615  0  1 18.559875  4.282675 12.849445
1621  0  1 18.560893  7.136915  1.427456
1622  0  1 18.560669  7.137139  4.282440
1623  0  1 18.560418  7.137390  7.137628
1624  0  1 18.559878  7.137930  9.993621
1625  0  1 18.559890  7.137918 12.849393
1631  0  1 18.560086  9.992933  1.427632
1632  0  1 18.559981  9.993065  4.282801
1633  0  1 18.559896  9.993179  7.138061
1634  0  1 18.559778  9.993329  9.993591
1635  0  1 18.559846  9.993269 12.849223
1641  0  1 18.559686 12.848698  1.427752
1642  0  1 18.559675 12.848807  4.282995
811   0  1 22.849425  2.848383  0.000479
802   0  1 22.843541  0.002839  2.856003
905   0  1 25.697772  0.000036 11.421556
904   0  1 25.697429  0.000379  8.566716
703   0  1 19.987704  0.000237  5.710503
702   0  1 19.987414  0.000382  2.855740
604   0  1 17.132055  0.000005  8.565966
603   0  1 17.132021  0.000120  5.710741
602   0  1 17.131919  0.000003  2.855562
503   0  1 14.276521  0.000007  5.710696
5     0  1  0.000032  0.000091 11.421423
4     0  1  0.000013  0.000383  8.566288
31    0  1  0.000305  8.566093  0.000305
951   0  1 25.697717 14.276385  0.000032
41    0  1  0.000100 11.421246  0.000100
131   0  1  2.855651  8.566157  0.000058
141   0  1  2.855421 11.421347  0.000019
211   0  1  5.710262  2.855144  0.000597
206   0  1  5.710696  0.000007 14.276521
311   0  1  8.566074  2.855489  0.000324
321   0  1  8.565854  5.710476  0.000193
331   0  1  8.565935  8.565872  0.000022
411   0  1 11.421437  2.855374  0.000171
421   0  1 11.421397  5.710564  0.000175
431   0  1 11.421345  8.565825  0.000092
441   0  1 11.421192 11.421332  0.000027
511   0  1 14.276819  2.855176  0.000138
521   0  1 14.276993  5.710344  0.000114
531   0  1 14.276992  8.565574  0.000085
541   0  1 14.276749 11.421059  0.000059
611   0  1 17.132479  2.854761  0.000118
621   0  1 17.132962  5.709672  0.000045
401   0  1 11.421423  0.000091  0.000032
631   0  1 17.132778  8.565030  0.000052
641   0  1 17.132234 11.420816  0.000085
651   0  1 17.131983 14.276463  0.000092
711   0  1 19.989238  2.853436  0.000060
301   0  1  8.566288  0.000383  0.000013
731   0  1 19.988136  8.564846  0.000045
741   0  1 19.987464 11.420815  0.000114
821   0  1 22.844372  5.708570  0.000060
751   0  1 19.987244 14.276411  0.000175
831   0  1 22.843047  8.565329  0.000118
841   0  1 22.842632 11.420989  0.000138
931   0  1 25.698103  8.565907  0.000284
851   0  1 22.842434 14.276371  0.000171
941   0  1 25.697895 11.421159  0.000141
1950  0  1 27.125498 12.848772 27.125498
1949  0  1 27.125579 12.848671 24.270177
1948  0  1 27.125629 12.848582 21.414932
16    0  1  0.000138  2.855176 14.276819
17    0  1  0.000118  2.854761 17.132479
18    0  1  0.000060  2.853436 19.989238
19    0  1  0.000479  2.848383 22.849425
20    0  1  0.002767  2.852110 25.698783
26    0  1  0.000114  5.710344 14.276993
27    0  1  0.000045  5.709672 17.132962
28    0  1 28.553115  5.708236 19.989572
29    0  1  0.000060  5.708570 22.844372
30    0  1  0.000646  5.710624 25.698360
36    0  1  0.000085  8.565574 14.276992
37    0  1  0.000052  8.565030 17.132778
38    0  1  0.000045  8.564846 19.988136
39    0  1  0.000118  8.565329 22.843047
40    0  1  0.000284  8.565907 25.698103
46    0  1  0.000059 11.421059 14.276749
47    0  1  0.000085 11.420816 17.132234
48    0  1  0.000114 11.420815 19.987464
49    0  1  0.000138 11.420989 22.842632
50    0  1  0.000141 11.421159 25.697895
1947  0  1 27.125613 12.848566 18.559741
1946  0  1 27.125571 12.848686 15.704406
1940  0  1 27.125678  9.993554 27.125678
1939  0  1 27.125694  9.993306 24.270438
110   0  1  2.859229  0.000659 25.697149
116   0  1  2.855392  2.855232 14.276713
117   0  1  2.855182  2.854979 17.132342
118   0  1  2.854093  2.853762 19.989084
119   0  1  2.846847  2.845741 22.852067
120   0  1  2.856003  2.854267 25.694969
126   0  1  2.855329  5.710406 14.276865
127   0  1  2.855045  5.709855 17.132777
128   0  1  2.854541  5.708582 19.989226
129   0  1  2.854093  5.708724 22.844046
130   0  1  2.855740  5.710394 25.697426
136   0  1  2.855293  8.565656 14.276875
137   0  1  2.855146  8.565183 17.132625
138   0  1  2.855045  8.565031 19.987953
139   0  1  2.855182  8.565466 22.842829
140   0  1  2.855562  8.565889 25.697805
146   0  1  2.855277 11.421150 14.276658
147   0  1  2.855293 11.420933 17.132152
148   0  1  2.855329 11.420943 19.987402
149   0  1  2.855392 11.421095 22.842576
150   0  1  2.855446 11.421220 25.697822
1938  0  1 27.125674  9.992944 21.415329
1937  0  1 27.125643  9.992775 18.560217
1936  0  1 27.125609  9.993029 15.704779
1930  0  1 27.125903  7.138437 27.125903
210   0  1  5.713726  0.001966 25.695842
216   0  1  5.710653  2.855247 14.276647
217   0  1  5.710524  2.855268 17.132281
218   0  1  5.710107  2.855223 19.988133
219   0  1  5.710182  2.854357 22.843451
220   0  1  5.710882  2.855031 25.697946
226   0  1  5.710563  5.710423 14.276769
227   0  1  5.710167  5.710018 17.132636
228   0  1  5.709098  5.708813 19.988995
229   0  1  5.710107  5.709675 22.842585
230   0  1  5.710503  5.710104 25.697571
236   0  1  5.710527  8.565706 14.276782
237   0  1  5.710330  8.565325 17.132483
238   0  1  5.710167  8.565172 19.987790
239   0  1  5.710524  8.565527 22.842540
240   0  1  5.710741  8.565787 25.697688
246   0  1  5.710515 11.421209 14.276599
247   0  1  5.710527 11.421026 17.132102
248   0  1  5.710563 11.421039 19.987385
249   0  1  5.710653 11.421161 22.842561
250   0  1  5.710696 11.421287 25.697801
1929  0  1 27.125950  7.137550 24.270971
1928  0  1 27.125859  7.136591 21.416364
1927  0  1 27.125733  7.136689 18.561119
1926  0  1 27.125643  7.137591 15.705033
1920  0  1 27.125970  4.285446 27.125970
316   0  1  8.565923  2.855205 14.276597
317   0  1  8.565934  2.855258 17.132175
318   0  1  8.566037  2.855229 19.987454
319   0  1  8.566542  2.855452 22.842356
320   0  1  8.566412  2.855512 25.697906
326   0  1  8.565883  5.710430 14.276681
327   0  1  8.565805  5.710364 17.132297
328   0  1  8.565776  5.710160 19.987648
329   0  1  8.566037  5.710354 22.842579
330   0  1  8.566010  5.710446 25.697886
336   0  1  8.565829  8.565719 14.276721
337   0  1  8.565692  8.565477 17.132331
338   0  1  8.565805  8.565511 19.987444
339   0  1  8.565934  8.565633 22.842550
340   0  1  8.565966  8.565753 25.697803
346   0  1  8.565808 11.421219 14.276589
347   0  1  8.565829 11.421087 17.132089
348   0  1  8.565883 11.421127 19.987378
349   0  1  8.565923 11.421211 22.842603
350   0  1  8.565912 11.421320 25.697846
1919  0  1 27.127101  4.279787 24.273125
1918  0  1 27.126389  4.278707 21.419101
1917  0  1 27.125859  4.281444 18.561217
1916  0  1 27.125674  4.282479 15.704864
1910  0  1 27.123804  1.472136 27.123804
416   0  1 11.421336  2.855133 14.276659
417   0  1 11.421518  2.855145 17.132117
418   0  1 11.421664  2.855163 19.987338
419   0  1 11.421742  2.855275 22.842533
420   0  1 11.421613  2.855349 25.697910
426   0  1 11.421346  5.710388 14.276708
427   0  1 11.421509  5.710380 17.132164
428   0  1 11.421648  5.710404 19.987404
429   0  1 11.421664  5.710470 22.842645
430   0  1 11.421552  5.710533 25.697957
436   0  1 11.421296  8.565708 14.276708
437   0  1 11.421402  8.565635 17.132173
438   0  1 11.421509  8.565644 19.987428
439   0  1 11.421518  8.565691 22.842663
440   0  1 11.421447  8.565757 25.697929
446   0  1 11.421217 11.421171 14.276637
447   0  1 11.421296 11.421100 17.132100
448   0  1 11.421346 11.421100 19.987420
449   0  1 11.421336 11.421149 22.842675
450   0  1 11.421276 11.421232 25.697913
1909  0  1 27.134202  1.411065 24.286743
1908  0  1 27.127101  1.424683 21.418021
1907  0  1 27.125950  1.426837 18.560258
1906  0  1 27.125694  1.427370 15.704502
1850  0  1 24.270177 12.848671 27.125579
516   0  1 14.276917  2.855048 14.276917
517   0  1 14.277216  2.854963 17.132408
518   0  1 14.277308  2.854926 19.987663
519   0  1 14.277182  2.854990 22.842818
520   0  1 14.276988  2.855078 25.698027
526   0  1 14.276932  5.710287 14.276932
527   0  1 14.277224  5.710162 17.132422
528   0  1 14.277354  5.710116 19.987692
529   0  1 14.277308  5.710145 22.842882
530   0  1 14.277156  5.710243 25.698045
536   0  1 14.276867  8.565610 14.276867
537   0  1 14.277095  8.565463 17.132345
538   0  1 14.277224  8.565386 19.987646
539   0  1 14.277216  8.565400 22.842845
540   0  1 14.277118  8.565477 25.698018
546   0  1 14.276744 11.421064 14.276744
547   0  1 14.276867 11.420941 17.132198
548   0  1 14.276932 11.420876 19.987521
549   0  1 14.276917 11.420891 22.842760
550   0  1 14.276845 11.420963 25.697970
1849  0  1 24.270253 12.848521 24.270253
1848  0  1 24.270341 12.848420 21.415009
1847  0  1 24.270364 12.848436 18.559814
1846  0  1 24.270343 12.848594 15.704487
1840  0  1 24.270438  9.993306 27.125694
616   0  1 17.132408  2.854963 14.277216
617   0  1 17.133031  2.854665 17.133031
618   0  1 17.133380  2.854383 19.988475
619   0  1 17.133097  2.854446 22.843362
620   0  1 17.132781  2.854540 25.698324
626   0  1 17.132422  5.710162 14.277224
627   0  1 17.132989  5.709752 17.132989
628   0  1 17.133354  5.709413 19.988395
629   0  1 17.133380  5.709333 22.843425
630   0  1 17.133190  5.709469 25.698274
636   0  1 17.132345  8.565463 14.277095
637   0  1 17.132756  8.565052 17.132756
638   0  1 17.132989  8.564819 19.988056
639   0  1 17.133031  8.564777 22.843143
640   0  1 17.132930  8.564878 25.698143
646   0  1 17.132198 11.420941 14.276867
647   0  1 17.132345 11.420713 17.132345
648   0  1 17.132422 11.420584 19.987646
649   0  1 17.132408 11.420592 22.842845
650   0  1 17.132331 11.420690 25.698018
1839  0  1 24.270533  9.993041 24.270533
1838  0  1 24.270625  9.992714 21.415482
1837  0  1 24.270582  9.992619 18.560344
1836  0  1 24.270464  9.992925 15.704883
716   0  1 19.987663  2.854926 14.277308
717   0  1 19.988475  2.854383 17.133380
718   0  1 19.990022  2.853368 19.990022
719   0  1 19.990039  2.853089 22.844719
720   0  1 19.989856  2.852953 25.699303
726   0  1 19.987692  5.710116 14.277354
727   0  1 19.988395  5.709413 17.133354
728   0  1 19.989788  5.708020 19.989788
729   0  1 19.990022  5.707786 22.844440
730   0  1 19.989897  5.707911 25.698785
736   0  1 19.987646  8.565386 14.277224
737   0  1 19.988056  8.564819 17.132989
738   0  1 19.988395  8.564454 19.988395
739   0  1 19.988475  8.564428 22.843425
740   0  1 19.988339  8.564618 25.698274
746   0  1 19.987521 11.420876 14.276932
747   0  1 19.987646 11.420584 17.132422
748   0  1 19.987692 11.420454 19.987692
749   0  1 19.987663 11.420500 22.842882
750   0  1 19.987565 11.420652 25.698045
1830  0  1 24.270971  7.137550 27.125950
1829  0  1 24.271034  7.137067 24.271034
1828  0  1 24.271361  7.136226 21.416640
1827  0  1 24.270986  7.136501 18.561307
810   0  1 22.844372  0.001428 25.696380
816   0  1 22.842818  2.854990 14.277182
817   0  1 22.843362  2.854446 17.133097
818   0  1 22.844719  2.853089 19.990039
819   0  1 22.851445  2.846363 22.851445
820   0  1 22.850753  2.847055 25.702315
826   0  1 22.842882  5.710145 14.277308
827   0  1 22.843425  5.709333 17.133380
828   0  1 22.844440  5.707786 19.990022
829   0  1 22.844719  5.707769 22.844719
830   0  1 22.844855  5.707952 25.699303
836   0  1 22.842845  8.565400 14.277216
837   0  1 22.843143  8.564777 17.133031
838   0  1 22.843425  8.564428 19.988475
839   0  1 22.843362  8.564711 22.843362
840   0  1 22.843268  8.565027 25.698324
846   0  1 22.842760 11.420891 14.276917
847   0  1 22.842845 11.420592 17.132408
848   0  1 22.842882 11.420500 19.987663
849   0  1 22.842818 11.420626 22.842818
850   0  1 22.842730 11.420820 25.698027
1826  0  1 24.270582  7.137464 15.705189
1820  0  1 24.273125  4.279787 27.127101
909   0  1 25.696380  0.001428 22.844372
1819  0  1 24.272223  4.279795 24.272223
916   0  1 25.698027  2.855078 14.276988
917   0  1 25.698324  2.854540 17.132781
918   0  1 25.699303  2.852953 19.989856
919   0  1 25.702315  2.847055 22.850753
920   0  1 25.696380  2.853436 25.696380
926   0  1 25.698045  5.710243 14.277156
927   0  1 25.698274  5.709469 17.133190
928   0  1 25.698785  5.707911 19.989897
929   0  1 25.699303  5.707952 22.844855
930   0  1 25.698362  5.709903 25.698362
936   0  1 25.698018  8.565477 14.277118
937   0  1 25.698143  8.564878 17.132930
938   0  1 25.698274  8.564618 19.988339
939   0  1 25.698324  8.565027 22.843268
940   0  1 25.698203  8.565595 25.698203
946   0  1 25.697970 11.420963 14.276845
947   0  1 25.698018 11.420690 17.132331
948   0  1 25.698045 11.420652 19.987565
949   0  1 25.698027 11.420820 22.842730
950   0  1 25.697963 11.421022 25.697963
1006  0  1  1.427786  1.427510 15.704359
1007  0  1  1.427695  1.427205 18.559923
1008  0  1  1.426527  1.425567 21.417409
1009  0  1  1.406188  1.402345 24.295463
1010  0  1  1.431873  1.426516 27.114815
1016  0  1  1.427665  4.282620 15.704693
1017  0  1  1.427378  4.281743 18.560917
1018  0  1  1.426931  4.279278 21.418530
1019  0  1  1.426527  4.280399 24.272241
1020  0  1  1.429016  4.283573 27.124573
1026  0  1  1.427632  7.137722 15.704875
1027  0  1  1.427456  7.136915 18.560893
1028  0  1  1.427378  7.136891 21.416065
1029  0  1  1.427695  7.137885 24.270603
1030  0  1  1.428173  7.138498 27.125585
1036  0  1  1.427658  9.993144 15.704664
1037  0  1  1.427632  9.992933 18.560086
1038  0  1  1.427665  9.993115 21.415188
1039  0  1  1.427786  9.993449 24.270298
1040  0  1  1.427881  9.993633 27.125567
1046  0  1  1.427685 12.848786 15.704322
1047  0  1  1.427752 12.848698 18.559686
1048  0  1  1.427797 12.848731 21.414902
1049  0  1  1.427776 12.848798 24.270152
1050  0  1  1.427703 12.848859 27.125457
1106  0  1  4.283068  1.427661 15.704350
1107  0  1  4.282955  1.427762 18.559966
1108  0  1  4.282496  1.428295 21.416061
1109  0  1  4.283145  1.426640 24.271168
1110  0  1  4.283347  1.427206 27.126663
1116  0  1  4.282856  4.282722 15.704597
1117  0  1  4.282151  4.281978 18.560781
1118  0  1  4.279454  4.278989 21.418819
1119  0  1  4.282496  4.281747 24.269513
1120  0  1  4.282934  4.282472 27.125002
1126  0  1  4.282801  7.137827 15.704743
1127  0  1  4.282440  7.137139 18.560669
1128  0  1  4.282151  7.137027 21.415830
1129  0  1  4.282955  7.137842 24.270046
1130  0  1  4.283279  7.138283 27.125274
1136  0  1  4.282861  9.993246 15.704562
1137  0  1  4.282801  9.993065 18.559981
1138  0  1  4.282856  9.993211 21.415086
1139  0  1  4.283068  9.993458 24.270147
1140  0  1  4.283164  9.993647 27.125427
1146  0  1  4.282923 12.848869 15.704262
1147  0  1  4.282995 12.848807 18.559675
1148  0  1  4.283037 12.848857 21.414945
1149  0  1  4.283022 12.848923 24.270206
1150  0  1  4.282966 12.849029 27.125460
1206  0  1  7.138322  1.427672 15.704353
1207  0  1  7.138197  1.427719 18.559940
1208  0  1  7.138403  1.427625 21.415118
1209  0  1  7.139591  1.428297 24.269511
1210  0  1  7.138944  1.428174 27.125778
1216  0  1  7.138209  4.282841 15.704499
1217  0  1  7.137953  4.282718 18.560182
1218  0  1  7.137915  4.282294 21.415514
1219  0  1  7.138403  4.282690 24.270183
1220  0  1  7.138250  4.282789 27.125657
1226  0  1  7.138061  7.137912 15.704629
1227  0  1  7.137628  7.137390 18.560418
1228  0  1  7.137953  7.137626 21.415090
1229  0  1  7.138197  7.137868 24.270089
1230  0  1  7.138266  7.138064 27.125405
1236  0  1  7.138124  9.993320 15.704488
1237  0  1  7.138061  9.993179 18.559896
1238  0  1  7.138209  9.993309 21.414967
1239  0  1  7.138322  9.993455 24.270136
1240  0  1  7.138354  9.993606 27.125423
1246  0  1  7.138178 12.848918 15.704252
1247  0  1  7.138220 12.848891 18.559715
1248  0  1  7.138213 12.848979 21.415035
1249  0  1  7.138196 12.849075 24.270269
1250  0  1  7.138134 12.849203 27.125484
1306  0  1  9.993664  1.427576 15.704350
1307  0  1  9.993757  1.427566 18.559722
1308  0  1  9.993976  1.427580 21.414831
1309  0  1  9.994155  1.427798 24.270010
1310  0  1  9.993947  1.427861 27.125540
1316  0  1  9.993660  4.282814 15.704430
1317  0  1  9.993758  4.282811 18.559797
1318  0  1  9.993981  4.282892 21.414916
1319  0  1  9.993976  4.282977 24.270228
1320  0  1  9.993804  4.283015 27.125650
1326  0  1  9.993591  7.138030 15.704479
1327  0  1  9.993621  7.137930 18.559878
1328  0  1  9.993758  7.138011 21.414997
1329  0  1  9.993757  7.138086 24.270242
1330  0  1  9.993662  7.138144 27.125576
1336  0  1  9.993520  9.993362 15.704446
1337  0  1  9.993591  9.993329 18.559778
1338  0  1  9.993660  9.993378 21.414994
1339  0  1  9.993664  9.993458 24.270232
1340  0  1  9.993615  9.993555 27.125506
1346  0  1  9.993498 12.848918 15.704302
1347  0  1  9.993509 12.848931 18.559769
1348  0  1  9.993496 12.848992 21.415071
1349  0  1  9.993446 12.849085 24.270305
1350  0  1  9.993364 12.849202 27.125513
1406  0  1 12.849214  1.427465 15.704487
1407  0  1 12.849372  1.427444 18.559814
1408  0  1 12.849388  1.427467 21.415009
1409  0  1 12.849287  1.427555 24.270253
1410  0  1 12.849137  1.427631 27.125579
1416  0  1 12.849261  4.282696 15.704540
1417  0  1 12.849445  4.282675 18.559875
1418  0  1 12.849493  4.282728 21.415080
1419  0  1 12.849388  4.282799 24.270341
1420  0  1 12.849226  4.282876 27.125629
1426  0  1 12.849223  7.137962 15.704539
1427  0  1 12.849393  7.137918 18.559890
1428  0  1 12.849445  7.137933 21.415133
1429  0  1 12.849372  7.137994 24.270364
1430  0  1 12.849242  7.138067 27.125613
1436  0  1 12.849100  9.993330 15.704478
1437  0  1 12.849223  9.993269 18.559846
1438  0  1 12.849261  9.993268 21.415112
1439  0  1 12.849214  9.993321 24.270343
1440  0  1 12.849122  9.993402 27.125571
1446  0  1 12.848961 12.848847 15.704381
1447  0  1 12.849009 12.848799 18.559790
1448  0  1 12.848999 12.848809 21.415083
1449  0  1 12.848940 12.848868 24.270321
1450  0  1 12.848849 12.848959 27.125539
1506  0  1 15.704883  1.427344 15.704883
1507  0  1 15.705189  1.427226 18.560344
1508  0  1 15.705094  1.427183 21.415482
1509  0  1 15.704767  1.427275 24.270533
1510  0  1 15.704502  1.427370 27.125694
1516  0  1 15.704928  4.282497 15.704928
1517  0  1 15.705270  4.282295 18.560400
1518  0  1 15.705262  4.282265 21.415543
1519  0  1 15.705094  4.282326 24.270625
1520  0  1 15.704864  4.282479 27.125674
1526  0  1 15.704864  7.137733 15.704864
1527  0  1 15.705174  7.137496 18.560312
1528  0  1 15.705270  7.137408 21.415513
1529  0  1 15.705189  7.137464 24.270582
1530  0  1 15.705033  7.137591 27.125643
1536  0  1 15.704684  9.993124 15.704684
1537  0  1 15.704864  9.992944 18.560075
1538  0  1 15.704928  9.992880 21.415311
1539  0  1 15.704883  9.992925 24.270464
1540  0  1 15.704779  9.993029 27.125609
1546  0  1 15.704478 12.848708 15.704478
1547  0  1 15.704539 12.848585 18.559846
1548  0  1 15.704540 12.848547 21.415112
1549  0  1 15.704487 12.848594 24.270343
1550  0  1 15.704406 12.848686 27.125571
1606  0  1 18.560344  1.427226 15.705189
1607  0  1 18.561307  1.426822 18.561307
1608  0  1 18.561582  1.426447 21.416640
1609  0  1 18.560741  1.426774 24.271034
1610  0  1 18.560258  1.426837 27.125950
1616  0  1 18.560400  4.282295 15.705270
1617  0  1 18.561319  4.281645 18.561319
1618  0  1 18.561664  4.281234 21.416574
1619  0  1 18.561582  4.281168 24.271361
1620  0  1 18.561217  4.281444 27.125859
1626  0  1 18.560312  7.137496 15.705174
1627  0  1 18.561055  7.136753 18.561055
1628  0  1 18.561319  7.136489 21.416163
1629  0  1 18.561307  7.136501 24.270986
1630  0  1 18.561119  7.136689 27.125733
1636  0  1 18.560075  9.992944 15.704864
1637  0  1 18.560312  9.992634 18.560312
1638  0  1 18.560400  9.992538 21.415513
1639  0  1 18.560344  9.992619 24.270582
1640  0  1 18.560217  9.992775 27.125643
1646  0  1 18.559846 12.848585 15.704539
1647  0  1 18.559890 12.848415 18.559890
1648  0  1 18.559875 12.848363 21.415133
1649  0  1 18.559814 12.848436 24.270364
1650  0  1 18.559741 12.848566 27.125613
1706  0  1 21.415482  1.427183 15.705094
1707  0  1 21.416640  1.426447 18.561582
1708  0  1 21.419493  1.424797 21.419493
1709  0  1 21.418013  1.425585 24.272223
1710  0  1 21.418021  1.424683 27.127101
1716  0  1 21.415543  4.282265 15.705262
1717  0  1 21.416574  4.281234 18.561664
1718  0  1 21.419473  4.278335 21.419473
1719  0  1 21.419493  4.278315 24.273011
1720  0  1 21.419101  4.278707 27.126389
1726  0  1 21.415513  7.137408 15.705270
1727  0  1 21.416163  7.136489 18.561319
1728  0  1 21.416574  7.136144 21.416574
1729  0  1 21.416640  7.136226 24.271361
1730  0  1 21.416364  7.136591 27.125859
1736  0  1 21.415311  9.992880 15.704928
1737  0  1 21.415513  9.992538 18.560400
1738  0  1 21.415543  9.992546 21.415543
1739  0  1 21.415482  9.992714 24.270625
1740  0  1 21.415329  9.992944 27.125674
1746  0  1 21.415112 12.848547 15.704540
1747  0  1 21.415133 12.848363 18.559875
1748  0  1 21.415080 12.848315 21.415080
1749  0  1 21.415009 12.848420 24.270341
1750  0  1 21.414932 12.848582 27.125629
1806  0  1 24.270533  1.427275 15.704767
1807  0  1 24.271034  1.426774 18.560741
1808  0  1 24.272223  1.425585 21.418013
1809  0  1 24.289317  1.408491 24.289317
1810  0  1 24.286743  1.411065 27.134202
1816  0  1 24.270625  4.282326 15.705094
1817  0  1 24.271361  4.281168 18.561582
1818  0  1 24.273011  4.278315 21.419493
60    0  1  0.000032 14.276385 25.697717
960   0  1 25.697772 14.276252 25.697772
410   0  1 11.421556  0.000036 25.697772
310   0  1  8.566716  0.000379 25.697429
51    0  1 28.553040 14.276464 28.553040
307   0  1  8.565966  0.000005 17.132055
111   0  1  2.854996  2.855557 28.552055
121   0  1  2.855964  5.711154 28.552940
208   0  1  5.710503  0.000237 19.987704
207   0  1  5.710741  0.000120 17.132021
108   0  1  2.855740  0.000382 19.987414
221   0  1  5.710579  5.710460 28.553061
231   0  1  5.710805  8.566014 28.553068
241   0  1  5.710666 11.421436 28.553090
107   0  1  2.855562  0.000003 17.131919
959   0  1 25.697910 14.276195 22.842459
958   0  1 25.697957 14.276256 19.987275
341   0  1  8.565857 11.421452 28.553105
957   0  1 25.697929 14.276361 17.132051
956   0  1 25.697913 14.276532 14.276576
860   0  1 22.842459 14.276195 25.697910
859   0  1 22.842533 14.276066 22.842533
858   0  1 22.842645 14.276144 19.987338
857   0  1 22.842663 14.276290 17.132117
856   0  1 22.842675 14.276472 14.276659
760   0  1 19.987275 14.276256 25.697957
759   0  1 19.987338 14.276144 22.842645
758   0  1 19.987404 14.276160 19.987404
757   0  1 19.987428 14.276299 17.132164
756   0  1 19.987420 14.276462 14.276708
660   0  1 17.132051 14.276361 25.697929
721   0  1 19.989572  5.708236 28.553115
659   0  1 17.132117 14.276290 22.842663
658   0  1 17.132164 14.276299 19.987428
657   0  1 17.132173 14.276406 17.132173
656   0  1 17.132100 14.276512 14.276708
560   0  1 14.276576 14.276532 25.697913
559   0  1 14.276659 14.276472 22.842675
558   0  1 14.276708 14.276462 19.987420
109   0  1  2.856003  0.002839 22.843541
1     0  1 28.544541  0.064986 28.544541
57    0  1  0.000092 14.276463 17.131983
58    0  1  0.000175 14.276411 19.987244
59    0  1  0.000171 14.276371 22.842434
557   0  1 14.276708 14.276512 17.132100
701   0  1 19.987184 28.552568  0.000646
801   0  1 22.845698 28.552145  0.002767
1995  0  1 27.125498 27.125430 12.849036
52    0  1 28.553024 14.276712  2.855160
53    0  1 28.553044 14.277074  5.710269
54    0  1 28.553075 14.277243  8.565381
55    0  1 28.553109 14.276989 11.420819
1973  0  1 27.125538 21.416582  7.136360
62    0  1 28.552768 17.132468  2.854627
63    0  1 28.552859 17.133427  5.709234
64    0  1 28.552985 17.133329  8.564479
65    0  1 28.553075 17.132427 11.420565
1972  0  1 27.125119 21.421635  4.276173
72    0  1 28.551617 19.990231  2.852473
73    0  1 28.552329 19.991311  5.706497
74    0  1 28.552859 19.988574  8.564381
75    0  1 28.553044 19.987539 11.420734
81    0  1  0.001794 22.797882  0.001794
82    0  1 28.544516 22.858953  2.838855
83    0  1 28.551617 22.845335  5.707577
84    0  1 28.552768 22.843181  8.565340
85    0  1 28.553024 22.842648 11.421096
1971  0  1 27.122832 21.417908  1.426815
92    0  1  0.001794 25.696014  2.899926
93    0  1 28.552748 25.698180  5.713236
94    0  1 28.552815 25.698113  8.566227
95    0  1 28.553040 25.697888 11.421344
805   0  1 22.842459 28.553018 11.421613
152   0  1  2.855065 14.276977  2.855065
153   0  1  2.854973 14.277304  5.710116
154   0  1  2.855016 14.277399  8.565254
155   0  1  2.855134 14.277093 11.420715
804   0  1 22.842296 28.553022  8.566412
162   0  1  2.854564 17.132951  2.854564
163   0  1  2.854237 17.133792  5.708958
164   0  1  2.854612 17.133517  8.564291
165   0  1  2.855016 17.132554 11.420409
803   0  1 22.842777 28.552982  5.710882
172   0  1  2.853376 19.990223  2.853376
173   0  1  2.852587 19.991703  5.706105
174   0  1  2.854237 19.988850  8.564016
175   0  1  2.854973 19.987692 11.420504
182   0  1  2.836281 22.861527  2.836281
183   0  1  2.853376 22.844432  5.707585
184   0  1  2.854564 22.843244  8.564857
185   0  1  2.855065 22.842743 11.420831
191   0  1  2.899926 25.696014  0.001794
192   0  1  2.838855 25.706412  2.838855
193   0  1  2.852473 25.699311  5.707577
194   0  1  2.854627 25.698160  8.565340
195   0  1  2.855160 25.697904 11.421096
705   0  1 19.987275 28.552971 11.421552
252   0  1  5.710116 14.277304  2.854973
253   0  1  5.710055 14.277472  5.710055
254   0  1  5.710085 14.277480  8.565198
255   0  1  5.710287 14.277138 11.420670
704   0  1 19.987362 28.553042  8.566010
262   0  1  5.708958 17.133792  2.854237
263   0  1  5.709024 17.133874  5.709024
264   0  1  5.709435 17.133529  8.564279
265   0  1  5.710085 17.132610 11.420328
1965  0  1 27.125484 18.559674 12.848605
272   0  1  5.706105 19.991703  2.852587
273   0  1  5.706125 19.991683  5.706125
274   0  1  5.709024 19.988784  8.563934
275   0  1  5.710055 19.987753 11.420336
1964  0  1 27.125553 18.560346  9.992636
282   0  1  5.707585 22.844432  2.853376
283   0  1  5.706105 22.845221  5.706105
284   0  1  5.708958 22.843571  8.564016
285   0  1  5.710116 22.842835 11.420504
1963  0  1 27.125603 18.561782  7.136026
292   0  1  5.707577 25.699311  2.852473
293   0  1  5.706497 25.698599  5.706497
294   0  1  5.709234 25.698069  8.564381
295   0  1  5.710269 25.697884 11.420734
605   0  1 17.132051 28.552999 11.421447
352   0  1  8.565254 14.277399  2.855016
353   0  1  8.565198 14.277480  5.710085
354   0  1  8.565286 14.277384  8.565286
355   0  1  8.565523 14.277074 11.420734
1984  0  1 27.125314 24.270313  9.993697
362   0  1  8.564291 17.133517  2.854612
363   0  1  8.564279 17.133529  5.709435
364   0  1  8.564543 17.133265  8.564543
365   0  1  8.565286 17.132522 11.420424
1983  0  1 27.124952 24.270570  7.138414
372   0  1  8.564016 19.988850  2.854237
373   0  1  8.563934 19.988784  5.709024
374   0  1  8.564279 19.988373  8.564279
375   0  1  8.565198 19.987723 11.420328
1982  0  1 27.122832 24.270993  4.279900
382   0  1  8.564857 22.843244  2.854564
383   0  1  8.564016 22.843571  5.708958
384   0  1  8.564291 22.843196  8.564291
385   0  1  8.565254 22.842792 11.420409
505   0  1 14.276576 28.553015 11.421276
392   0  1  8.565340 25.698160  2.854627
393   0  1  8.564381 25.698069  5.709234
394   0  1  8.564479 25.697943  8.564479
395   0  1  8.565381 25.697853 11.420565
504   0  1 14.276488 28.553082  8.565912
452   0  1 11.420715 14.277093  2.855134
453   0  1 11.420670 14.277138  5.710287
454   0  1 11.420734 14.277074  8.565523
455   0  1 11.420914 14.276894 11.420914
1981  0  1 27.180622 24.356704  1.341104
462   0  1 11.420409 17.132554  2.855016
463   0  1 11.420328 17.132610  5.710085
464   0  1 11.420424 17.132522  8.565286
465   0  1 11.420734 17.132285 11.420734
502   0  1 14.276588 28.553106  2.855446
472   0  1 11.420504 19.987692  2.854973
473   0  1 11.420336 19.987753  5.710055
474   0  1 11.420328 19.987723  8.565198
475   0  1 11.420670 19.987521 11.420670
405   0  1 11.420934 28.552988 11.420934
482   0  1 11.420831 22.842743  2.855065
483   0  1 11.420504 22.842835  5.710116
484   0  1 11.420409 22.842792  8.565254
485   0  1 11.420715 22.842674 11.420715
404   0  1 11.420723 28.552962  8.565512
492   0  1 11.421096 25.697904  2.855160
493   0  1 11.420734 25.697884  5.710269
494   0  1 11.420565 25.697853  8.565381
495   0  1 11.420819 25.697819 11.420819
403   0  1 11.420905 28.552995  5.710410
552   0  1 14.276384 14.276697  2.855255
553   0  1 14.276337 14.276750  5.710486
554   0  1 14.276375 14.276749  8.565752
555   0  1 14.276498 14.276688 11.421120
402   0  1 11.421239 28.553116  2.855300
562   0  1 14.276226 17.132024  2.855234
563   0  1 14.276153 17.132084  5.710465
564   0  1 14.276205 17.132100  8.565708
565   0  1 14.276375 17.132056 11.421059
305   0  1  8.565512 28.552962 11.420723
572   0  1 14.276210 19.987219  2.855257
573   0  1 14.276105 19.987290  5.710518
574   0  1 14.276153 19.987343  8.565724
575   0  1 14.276337 19.987322 11.421058
304   0  1  8.564705 28.552785  8.564705
582   0  1 14.276311 22.842463  2.855345
583   0  1 14.276210 22.842551  5.710589
584   0  1 14.276226 22.842574  8.565784
585   0  1 14.276384 22.842553 11.421111
303   0  1  8.564681 28.552708  5.709533
592   0  1 14.276461 25.697789  2.855421
593   0  1 14.276372 25.697838  5.710666
594   0  1 14.276356 25.697823  8.565857
595   0  1 14.276476 25.697781 11.421192
302   0  1  8.565675 28.553025  2.854995
652   0  1 17.131934 14.276560  2.855366
653   0  1 17.131938 14.276640  5.710604
654   0  1 17.132007 14.276689  8.565820
655   0  1 17.132078 14.276656 11.421152
205   0  1  5.710410 28.552995 11.420905
662   0  1 17.131841 17.131932  2.855356
663   0  1 17.131840 17.132007  5.710601
664   0  1 17.131977 17.132088  8.565720
665   0  1 17.132007 17.131988 11.421119
204   0  1  5.709533 28.552708  8.564681
672   0  1 17.131622 19.987041  2.855370
673   0  1 17.131617 19.987126  5.710682
674   0  1 17.131840 19.987207  8.565801
675   0  1 17.131938 19.987204 11.421168
203   0  1  5.707068 28.552261  5.707068
682   0  1 17.131443 22.842220  2.855588
683   0  1 17.131622 22.842438  5.710767
684   0  1 17.131841 22.842452  8.565876
685   0  1 17.131934 22.842442 11.421248
202   0  1  5.708189 28.551857  2.853357
692   0  1 17.131651 25.697750  2.855651
693   0  1 17.131794 25.697860  5.710805
694   0  1 17.131936 25.697786  8.565935
695   0  1 17.131983 25.697716 11.421345
105   0  1  2.855300 28.553116 11.421239
752   0  1 19.987276 14.276563  2.855462
753   0  1 19.987389 14.276709  5.710631
754   0  1 19.987537 14.276839  8.565702
755   0  1 19.987474 14.276698 11.421110
104   0  1  2.854995 28.553025  8.565675
762   0  1 19.987401 17.132149  2.855509
763   0  1 19.987645 17.132391  5.710508
764   0  1 19.987971 17.132628  8.565180
765   0  1 19.987537 17.132106 11.420969
103   0  1  2.853357 28.551857  5.708189
772   0  1 19.987195 19.987328  2.855415
773   0  1 19.987684 19.987724  5.710084
774   0  1 19.987645 19.987300  8.565417
775   0  1 19.987389 19.987177 11.421099
102   0  1  2.830135 28.531518  2.830135
782   0  1 19.986007 22.841721  2.856087
783   0  1 19.987195 22.842393  5.710480
784   0  1 19.987401 22.842299  8.565659
785   0  1 19.987276 22.842346 11.421245
791   0  1 19.986258 25.696924  0.000884
792   0  1 19.986654 25.697988  2.855964
793   0  1 19.987348 25.697867  5.710579
794   0  1 19.987332 25.697615  8.565854
795   0  1 19.987244 25.697633 11.421397
1975  0  1 27.125460 21.414842 12.848779
852   0  1 22.842530 14.276560  2.855451
853   0  1 22.842742 14.276807  5.710512
854   0  1 22.842797 14.276952  8.565617
855   0  1 22.842737 14.276772 11.421036
1974  0  1 27.125480 21.415257  9.993119
862   0  1 22.842643 17.132176  2.855552
863   0  1 22.843447 17.132991  5.709768
864   0  1 22.843158 17.132879  8.564929
865   0  1 22.842797 17.132191 11.420856
1993  0  1 27.124714 27.126214  7.139340
872   0  1 22.843102 19.988271  2.856085
873   0  1 22.846144 19.991029  5.706779
874   0  1 22.843447 19.988040  8.564817
875   0  1 22.842742 19.987296 11.421001
1992  0  1 27.120554 27.130374  4.291195
882   0  1 22.842453 22.843378  2.854430
883   0  1 22.843102 22.841723  5.709537
884   0  1 22.842643 22.842256  8.565632
885   0  1 22.842530 22.842357 11.421248
891   0  1 22.834403 25.692764  0.005044
892   0  1 22.842251 25.698873  2.854996
893   0  1 22.842664 25.697211  5.710262
894   0  1 22.842319 25.697484  8.566074
895   0  1 22.842434 25.697637 11.421437
1994  0  1 27.125293 27.125635  9.993883
952   0  1 25.697812 14.276569  2.855300
953   0  1 25.697933 14.276903  5.710410
954   0  1 25.697966 14.277085  8.565512
955   0  1 25.697940 14.276874 11.420934
1991  0  1 27.134177 27.116751  1.492777
962   0  1 25.697903 17.132133  2.854995
963   0  1 25.698220 17.133127  5.709533
964   0  1 25.698143 17.133103  8.564705
965   0  1 25.697966 17.132296 11.420723
971   0  1 25.696582 19.986445  0.001026
972   0  1 25.699071 19.989619  2.853357
973   0  1 25.698667 19.990740  5.707068
974   0  1 25.698220 19.988275  8.564681
975   0  1 25.697933 19.987398 11.420905
981   0  1 25.693725 22.843502  0.010783
982   0  1 25.719410 22.867673  2.830135
983   0  1 25.699071 22.844451  5.708189
984   0  1 25.697903 22.842813  8.565675
985   0  1 25.697812 22.842508 11.421239
1985  0  1 27.125457 24.270105 12.848949
992   0  1 25.693725 25.687025  2.854306
993   0  1 25.696582 25.696782  5.711363
994   0  1 25.697425 25.697795  8.566288
995   0  1 25.697717 25.697776 11.421423
1051  0  1  1.427395 15.704423  1.427395
1052  0  1  1.427274 15.704991  4.282330
1053  0  1  1.427324 15.705400  7.137259
1054  0  1  1.427455 15.705140  9.992668
1055  0  1  1.427580 15.704541 12.848480
1061  0  1  1.427236 18.560115  1.427236
1062  0  1  1.426295 18.562066  4.280743
1063  0  1  1.426813 18.562107  7.135701
1064  0  1  1.427324 18.560549  9.992408
1065  0  1  1.427553 18.559775 12.848442
1071  0  1  1.429219 21.416582  1.429219
1072  0  1  1.423283 21.422963  4.274845
1073  0  1  1.426295 21.417065  7.135742
1074  0  1  1.427274 21.415478  9.992817
1075  0  1  1.427571 21.414940 12.848610
1081  0  1  1.382550 24.315258  1.382550
1082  0  1  1.429219 24.268589  4.281226
1083  0  1  1.427236 24.270572  7.137693
1084  0  1  1.427395 24.270413  9.993385
1085  0  1  1.427635 24.270173 12.848812
1091  0  1  1.341104 27.070306  1.341104
1092  0  1  1.426815 27.128096  4.279900
1093  0  1  1.427238 27.125976  7.138414
1094  0  1  1.427495 27.125614  9.993697
1095  0  1  1.427703 27.125471 12.848949
1151  0  1  4.282330 15.704991  1.427274
1152  0  1  4.282236 15.705307  4.282236
1153  0  1  4.282173 15.705590  7.137123
1154  0  1  4.282455 15.705241  9.992567
1155  0  1  4.282753 15.704618 12.848383
1161  0  1  4.280743 18.562066  1.426295
1162  0  1  4.280879 18.562249  4.280879
1163  0  1  4.281158 18.562232  7.135576
1164  0  1  4.282173 18.560685  9.992218
1165  0  1  4.282716 18.559873 12.848290
1171  0  1  4.274845 21.422963  1.423283
1172  0  1  4.274153 21.423655  4.274153
1173  0  1  4.280879 21.416929  7.135559
1174  0  1  4.282236 21.415572  9.992501
1175  0  1  4.282780 21.415028 12.848416
1181  0  1  4.281226 24.268589  1.429219
1182  0  1  4.274845 24.274525  4.274845
1183  0  1  4.280743 24.271513  7.135742
1184  0  1  4.282330 24.270534  9.992817
1185  0  1  4.282868 24.270237 12.848610
1191  0  1  4.279900 27.128096  1.426815
1192  0  1  4.276173 27.125809  4.276173
1193  0  1  4.281226 27.125390  7.136360
1194  0  1  4.282551 27.125448  9.993119
1195  0  1  4.282966 27.125468 12.848779
1251  0  1  7.137259 15.705400  1.427324
1252  0  1  7.137123 15.705590  4.282173
1253  0  1  7.137203 15.705564  7.137203
1254  0  1  7.137542 15.705199  9.992609
1255  0  1  7.137952 15.704632 12.848374
1261  0  1  7.135701 18.562107  1.426813
1262  0  1  7.135576 18.562232  4.281158
1263  0  1  7.135810 18.561998  7.135810
1264  0  1  7.137203 18.560605  9.992244
1265  0  1  7.137906 18.559902 12.848244
1271  0  1  7.135742 21.417065  1.426295
1272  0  1  7.135559 21.416929  4.280879
1273  0  1  7.135576 21.416650  7.135576
1274  0  1  7.137123 21.415635  9.992218
1275  0  1  7.137935 21.415092 12.848290
1281  0  1  7.137693 24.270572  1.427236
1282  0  1  7.135742 24.271513  4.280743
1283  0  1  7.135701 24.270995  7.135701
1284  0  1  7.137259 24.270484  9.992408
1285  0  1  7.138033 24.270255 12.848442
1291  0  1  7.138414 27.125976  1.427238
1292  0  1  7.136360 27.125390  4.281226
1293  0  1  7.136026 27.125325  7.136026
1294  0  1  7.137462 27.125375  9.992636
1295  0  1  7.138134 27.125444 12.848605
1351  0  1  9.992668 15.705140  1.427455
1352  0  1  9.992567 15.705241  4.282455
1353  0  1  9.992609 15.705199  7.137542
1354  0  1  9.992842 15.704966  9.992842
1355  0  1  9.993253 15.704555 12.848503
1361  0  1  9.992408 18.560549  1.427324
1362  0  1  9.992218 18.560685  4.282173
1363  0  1  9.992244 18.560605  7.137203
1364  0  1  9.992609 18.560266  9.992609
1365  0  1  9.993176 18.559856 12.848374
1371  0  1  9.992817 21.415478  1.427274
1372  0  1  9.992501 21.415572  4.282236
1373  0  1  9.992218 21.415635  7.137123
1374  0  1  9.992567 21.415353  9.992567
1375  0  1  9.993190 21.415055 12.848383
1381  0  1  9.993385 24.270413  1.427395
1382  0  1  9.992817 24.270534  4.282330
1383  0  1  9.992408 24.270484  7.137259
1384  0  1  9.992668 24.270353  9.992668
1385  0  1  9.993267 24.270228 12.848480
1391  0  1  9.993697 27.125614  1.427495
1392  0  1  9.993119 27.125448  4.282551
1393  0  1  9.992636 27.125375  7.137462
1394  0  1  9.992820 27.125382  9.992820
1395  0  1  9.993364 27.125415 12.848606
1451  0  1 12.848480 15.704541  1.427580
1452  0  1 12.848383 15.704618  4.282753
1453  0  1 12.848374 15.704632  7.137952
1454  0  1 12.848503 15.704555  9.993253
1455  0  1 12.848731 15.704408 12.848731
1461  0  1 12.848442 18.559775  1.427553
1462  0  1 12.848290 18.559873  4.282716
1463  0  1 12.848244 18.559902  7.137906
1464  0  1 12.848374 18.559856  9.993176
1465  0  1 12.848666 18.559731 12.848666
1471  0  1 12.848610 21.414940  1.427571
1472  0  1 12.848416 21.415028  4.282780
1473  0  1 12.848290 21.415092  7.137935
1474  0  1 12.848383 21.415055  9.993190
1475  0  1 12.848681 21.414969 12.848681
1481  0  1 12.848812 24.270173  1.427635
1482  0  1 12.848610 24.270237  4.282868
1483  0  1 12.848442 24.270255  7.138033
1484  0  1 12.848480 24.270228  9.993267
1485  0  1 12.848753 24.270180 12.848753
1491  0  1 12.848949 27.125471  1.427703
1492  0  1 12.848779 27.125468  4.282966
1493  0  1 12.848605 27.125444  7.138134
1494  0  1 12.848606 27.125415  9.993364
1495  0  1 12.848849 27.125389 12.848849
1551  0  1 15.704151 15.704261  1.427669
1552  0  1 15.704080 15.704327  4.282935
1553  0  1 15.704089 15.704374  7.138170
1554  0  1 15.704196 15.704383  9.993425
1555  0  1 15.704302 15.704310 12.848890
1561  0  1 15.704046 18.559485  1.427641
1562  0  1 15.703934 18.559548  4.282953
1563  0  1 15.703950 18.559614  7.138194
1564  0  1 15.704089 18.559638  9.993434
1565  0  1 15.704252 18.559630 12.848890
1571  0  1 15.703985 21.414669  1.427688
1572  0  1 15.703856 21.414743  4.283065
1573  0  1 15.703934 21.414855  7.138260
1574  0  1 15.704080 21.414873  9.993481
1575  0  1 15.704262 21.414885 12.848939
1581  0  1 15.704042 24.269982  1.427826
1582  0  1 15.703985 24.270120  4.283139
1583  0  1 15.704046 24.270167  7.138323
1584  0  1 15.704151 24.270139  9.993547
1585  0  1 15.704322 24.270123 12.849022
1591  0  1 15.704175 27.125361  1.427881
1592  0  1 15.704161 27.125501  4.283164
1593  0  1 15.704202 27.125505  7.138354
1594  0  1 15.704253 27.125422  9.993615
1595  0  1 15.704406 27.125357 12.849122
1651  0  1 18.559632 15.704265  1.427795
1652  0  1 18.559664 15.704385  4.283048
1653  0  1 18.559793 15.704507  7.138154
1654  0  1 18.559906 15.704541  9.993267
1655  0  1 18.559769 15.704299 12.848877
1661  0  1 18.559588 18.559572  1.427712
1662  0  1 18.559561 18.559664  4.283019
1663  0  1 18.559822 18.559858  7.137950
1664  0  1 18.559793 18.559654  9.993301
1665  0  1 18.559715 18.559588 12.848917
1671  0  1 18.559186 21.414506  1.427692
1672  0  1 18.559056 21.414566  4.283242
1673  0  1 18.559561 21.414789  7.138144
1674  0  1 18.559664 21.414760  9.993423
1675  0  1 18.559675 21.414813 12.849001
1681  0  1 18.558882 24.269639  1.428169
1682  0  1 18.559186 24.270116  4.283302
1683  0  1 18.559588 24.270096  7.138236
1684  0  1 18.559632 24.270013  9.993543
1685  0  1 18.559686 24.270056 12.849110
1691  0  1 18.559310 27.125343  1.428173
1692  0  1 18.559525 27.125654  4.283279
1693  0  1 18.559744 27.125523  7.138266
1694  0  1 18.559664 27.125352  9.993662
1695  0  1 18.559741 27.125315 12.849242
1751  0  1 21.414857 15.704231  1.427910
1752  0  1 21.415074 15.704491  4.283058
1753  0  1 21.415431 15.704846  7.137808
1754  0  1 21.415268 15.704693  9.993115
1755  0  1 21.415071 15.704312 12.848816
1761  0  1 21.415095 18.559914  1.428027
1762  0  1 21.415491 18.560343  4.283013
1763  0  1 21.416500 18.561205  7.136603
1764  0  1 21.415431 18.560000  9.992962
1765  0  1 21.415035 18.559595 12.848829
1771  0  1 21.414716 21.414987  1.427652
1772  0  1 21.415416 21.415661  4.282147
1773  0  1 21.415491 21.414795  7.137465
1774  0  1 21.415074 21.414750  9.993317
1775  0  1 21.414945 21.414771 12.848951
1781  0  1 21.411872 24.268052  1.429756
1782  0  1 21.414716 24.270156  4.282821
1783  0  1 21.415095 24.269781  7.137894
1784  0  1 21.414857 24.269898  9.993577
1785  0  1 21.414902 24.270011 12.849077
1791  0  1 21.414235 27.126355  1.429016
1792  0  1 21.415336 27.125926  4.282934
1793  0  1 21.415019 27.125271  7.138250
1794  0  1 21.414793 27.125278  9.993804
1795  0  1 21.414932 27.125299 12.849226
1851  0  1 24.270036 15.704129  1.427793
1852  0  1 24.270416 15.704552  4.282769
1853  0  1 24.270553 15.704987  7.137645
1854  0  1 24.270452 15.704835  9.992973
1855  0  1 24.270305 15.704362 12.848723
1861  0  1 24.269858 18.559624  1.428172
1862  0  1 24.271505 18.561294  4.281552
1863  0  1 24.271057 18.561436  7.136372
1864  0  1 24.270553 18.560163  9.992821
1865  0  1 24.270269 18.559612 12.848733
1871  0  1 24.269595 21.415751  1.430629
1872  0  1 24.278751 21.424277  4.273531
1873  0  1 24.271505 21.416256  7.136514
1874  0  1 24.270416 21.415039  9.993256
1875  0  1 24.270206 21.414786 12.848885
1881  0  1 24.266369 24.269358  1.428450
1882  0  1 24.269595 24.267179  4.282057
1883  0  1 24.269858 24.269636  7.138184
1884  0  1 24.270036 24.270015  9.993679
1885  0  1 24.270152 24.270032 12.849010
1891  0  1 24.271292 27.136113  1.431873
1892  0  1 24.270602 27.124265  4.283347
1893  0  1 24.269634 27.125150  7.138944
1894  0  1 24.269947 27.125388  9.993947
1895  0  1 24.270177 27.125349 12.849137
1951  0  1 27.125314 15.704111  1.427495
1952  0  1 27.125480 15.704689  4.282551
1953  0  1 27.125553 15.705172  7.137462
1954  0  1 27.125546 15.704988  9.992820
1955  0  1 27.125513 15.704444 12.848606
1961  0  1 27.124952 18.559394  1.427238
1962  0  1 27.125538 18.561448  4.281226
56    0  1  0.000027 14.276616 14.276476
961   0  1 25.697425 17.131520  0.000013
66    0  1 28.553105 17.131951 14.276356
76    0  1 28.553090 19.987142 14.276372
86    0  1  0.000019 22.842387 14.276461
156   0  1  2.855255 14.276697 14.276384
166   0  1  2.855234 17.132024 14.276226
176   0  1  2.855257 19.987219 14.276210
186   0  1  2.855345 22.842463 14.276311
196   0  1  2.855421 25.697789 14.276461
256   0  1  5.710486 14.276750 14.276337
266   0  1  5.710465 17.132084 14.276153
276   0  1  5.710518 19.987290 14.276105
286   0  1  5.710589 22.842551 14.276210
296   0  1  5.710666 25.697838 14.276372
356   0  1  8.565752 14.276749 14.276375
366   0  1  8.565708 17.132100 14.276205
376   0  1  8.565724 19.987343 14.276153
386   0  1  8.565784 22.842574 14.276226
396   0  1  8.565857 25.697823 14.276356
456   0  1 11.421120 14.276688 14.276498
466   0  1 11.421059 17.132056 14.276375
476   0  1 11.421058 19.987322 14.276337
486   0  1 11.421111 22.842553 14.276384
496   0  1 11.421192 25.697781 14.276476
871   0  1 22.842664 19.987546  0.000597
861   0  1 22.842319 17.131734  0.000324
761   0  1 19.987332 17.131954  0.000193
691   0  1 17.131715 25.697503  0.000305
681   0  1 17.131651 22.842157  0.000058
661   0  1 17.131936 17.131873  0.000022
591   0  1 14.276562 25.697708  0.000100
581   0  1 14.276461 22.842387  0.000019
306   0  1  8.565912 28.553082 14.276488
551   0  1 14.276476 14.276616  0.000027
501   0  1 14.276649 28.553033  0.000141
601   0  1 17.131901 28.552825  0.000284
966   0  1 25.697846 17.131896 14.276488
976   0  1 25.697801 19.987112 14.276521
8     0  1  0.000646 28.552568 19.987184
9     0  1  0.002767 28.552145 22.845698
710   0  1 19.987905 28.552566 25.698362
908   0  1 25.698362 28.552566 19.987905
171   0  1  2.852473 19.990231 28.551617
991   0  1 25.632822 25.706387 28.544541
161   0  1  2.854627 17.132468 28.552768
881   0  1 22.842251 22.842812 28.552055
1999  0  1 27.123804 27.127124 24.225672
901   0  1 25.784494 28.466434 28.498096
67    0  1  0.000022 17.131873 17.131936
68    0  1  0.000193 17.131954 19.987332
69    0  1  0.000324 17.131734 22.842319
70    0  1  0.000013 17.131520 25.697425
151   0  1  2.855160 14.276712 28.553024
77    0  1 28.553068 19.987003 17.131794
78    0  1 28.553061 19.987229 19.987348
79    0  1  0.000597 19.987546 22.842664
80    0  1  0.001026 19.986445 25.696582
91    0  1 27.839359 26.411569 27.839359
87    0  1  0.000058 22.842157 17.131651
88    0  1 28.552940 22.841844 19.986654
89    0  1 28.552055 22.842812 22.842251
90    0  1  0.010783 22.843502 25.693725
910   0  1 25.743048 28.507880 25.743048
97    0  1  0.000305 25.697503 17.131715
98    0  1  0.000884 25.696924 19.986258
99    0  1  0.005044 25.692764 22.834403
100   0  1 28.544541 25.706387 25.632822
61    0  1 28.552815 17.131581 28.552815
157   0  1  2.855366 14.276560 17.131934
158   0  1  2.855462 14.276563 19.987276
159   0  1  2.855451 14.276560 22.842530
160   0  1  2.855300 14.276569 25.697812
808   0  1 22.844855 28.551625 19.989856
167   0  1  2.855356 17.131932 17.131841
168   0  1  2.855509 17.132149 19.987401
169   0  1  2.855552 17.132176 22.842643
170   0  1  2.854995 17.132133 25.697903
807   0  1 22.843268 28.552604 17.132781
177   0  1  2.855370 19.987041 17.131622
178   0  1  2.855415 19.987328 19.987195
179   0  1  2.856085 19.988271 22.843102
180   0  1  2.853357 19.989619 25.699071
806   0  1 22.842730 28.552901 14.276988
187   0  1  2.855588 22.842220 17.131443
188   0  1  2.856087 22.841721 19.986007
189   0  1  2.854430 22.843378 22.842453
190   0  1  2.830135 22.867673 25.719410
709   0  1 19.989856 28.551625 22.844855
197   0  1  2.855651 25.697750 17.131651
198   0  1  2.855964 25.697988 19.986654
199   0  1  2.854996 25.698873 22.842251
200   0  1  2.854306 25.687025 25.693725
708   0  1 19.989897 28.552143 19.989897
257   0  1  5.710604 14.276640 17.131938
258   0  1  5.710631 14.276709 19.987389
259   0  1  5.710512 14.276807 22.842742
260   0  1  5.710410 14.276903 25.697933
707   0  1 19.988339 28.552654 17.133190
267   0  1  5.710601 17.132007 17.131840
268   0  1  5.710508 17.132391 19.987645
269   0  1  5.709768 17.132991 22.843447
270   0  1  5.709533 17.133127 25.698220
706   0  1 19.987565 28.552883 14.277156
277   0  1  5.710682 19.987126 17.131617
278   0  1  5.710084 19.987724 19.987684
279   0  1  5.706779 19.991029 22.846144
280   0  1  5.707068 19.990740 25.698667
610   0  1 17.132213 28.552725 25.698203
287   0  1  5.710767 22.842438 17.131622
288   0  1  5.710480 22.842393 19.987195
289   0  1  5.709537 22.841723 22.843102
290   0  1  5.708189 22.844451 25.699071
609   0  1 17.132781 28.552604 22.843268
297   0  1  5.710805 25.697860 17.131794
298   0  1  5.710579 25.697867 19.987348
299   0  1  5.710262 25.697211 22.842664
300   0  1  5.711363 25.696782 25.696582
608   0  1 17.133190 28.552654 19.988339
357   0  1  8.565820 14.276689 17.132007
358   0  1  8.565702 14.276839 19.987537
359   0  1  8.565617 14.276952 22.842797
360   0  1  8.565512 14.277085 25.697966
607   0  1 17.132930 28.552785 17.132930
367   0  1  8.565720 17.132088 17.131977
368   0  1  8.565180 17.132628 19.987971
369   0  1  8.564929 17.132879 22.843158
370   0  1  8.564705 17.133103 25.698143
606   0  1 17.132331 28.552910 14.277118
377   0  1  8.565801 19.987207 17.131840
378   0  1  8.565417 19.987300 19.987645
379   0  1  8.564817 19.988040 22.843447
380   0  1  8.564681 19.988275 25.698220
510   0  1 14.276786 28.552965 25.697963
387   0  1  8.565876 22.842452 17.131841
388   0  1  8.565659 22.842299 19.987401
389   0  1  8.565632 22.842256 22.842643
390   0  1  8.565675 22.842813 25.697903
509   0  1 14.276988 28.552901 22.842730
397   0  1  8.565935 25.697786 17.131936
398   0  1  8.565854 25.697615 19.987332
399   0  1  8.566074 25.697484 22.842319
400   0  1  8.566288 25.697795 25.697425
508   0  1 14.277156 28.552883 19.987565
457   0  1 11.421152 14.276656 17.132078
458   0  1 11.421110 14.276698 19.987474
459   0  1 11.421036 14.276772 22.842737
460   0  1 11.420934 14.276874 25.697940
507   0  1 14.277118 28.552910 17.132331
467   0  1 11.421119 17.131988 17.132007
468   0  1 11.420969 17.132106 19.987537
469   0  1 11.420856 17.132191 22.842797
470   0  1 11.420723 17.132296 25.697966
506   0  1 14.276845 28.552958 14.276845
477   0  1 11.421168 19.987204 17.131938
478   0  1 11.421099 19.987177 19.987389
479   0  1 11.421001 19.987296 22.842742
480   0  1 11.420905 19.987398 25.697933
181   0  1  2.838855 22.858953 28.544516
487   0  1 11.421248 22.842442 17.131934
488   0  1 11.421245 22.842346 19.987276
489   0  1 11.421248 22.842357 22.842530
490   0  1 11.421239 22.842508 25.697812
409   0  1 11.421613 28.553018 22.842459
497   0  1 11.421345 25.697716 17.131983
498   0  1 11.421397 25.697633 19.987244
499   0  1 11.421437 25.697637 22.842434
500   0  1 11.421423 25.697776 25.697717
556   0  1 14.276637 14.276591 14.276637
408   0  1 11.421552 28.552971 19.987275
407   0  1 11.421447 28.552999 17.132051
781   0  1 19.986654 22.841844 28.552940
771   0  1 19.987348 19.987229 28.553061
566   0  1 14.276589 17.132000 14.276589
567   0  1 14.276721 17.131979 17.132089
568   0  1 14.276681 17.131925 19.987378
569   0  1 14.276597 17.131885 22.842603
570   0  1 14.276488 17.131896 25.697846
576   0  1 14.276599 19.987293 14.276599
577   0  1 14.276782 19.987281 17.132102
578   0  1 14.276769 19.987245 19.987385
579   0  1 14.276647 19.987155 22.842561
580   0  1 14.276521 19.987112 25.697801
586   0  1 14.276658 22.842531 14.276658
587   0  1 14.276875 22.842515 17.132152
588   0  1 14.276865 22.842479 19.987402
589   0  1 14.276713 22.842416 22.842576
590   0  1 14.276588 22.842362 25.697822
596   0  1 14.276749 25.697749 14.276749
597   0  1 14.276992 25.697723 17.132234
598   0  1 14.276993 25.697694 19.987464
599   0  1 14.276819 25.697670 22.842632
600   0  1 14.276649 25.697667 25.697895
406   0  1 11.421276 28.553015 14.276576
251   0  1  5.710269 14.277074 28.553044
309   0  1  8.566412 28.553022 22.842296
671   0  1 17.131794 19.987003 28.553068
308   0  1  8.566010 28.553042 19.987362
666   0  1 17.132089 17.131979 14.276721
667   0  1 17.132331 17.132116 17.132331
668   0  1 17.132297 17.132003 19.987444
669   0  1 17.132175 17.131874 22.842550
670   0  1 17.132055 17.131842 25.697803
676   0  1 17.132102 19.987281 14.276782
677   0  1 17.132483 19.987478 17.132483
678   0  1 17.132636 19.987641 19.987790
679   0  1 17.132281 19.987284 22.842540
680   0  1 17.132021 19.987067 25.697688
686   0  1 17.132152 22.842515 14.276875
687   0  1 17.132625 22.842662 17.132625
688   0  1 17.132777 22.842763 19.987953
689   0  1 17.132342 22.842626 22.842829
690   0  1 17.131919 22.842246 25.697805
696   0  1 17.132234 25.697723 14.276992
697   0  1 17.132778 25.697756 17.132778
698   0  1 17.132962 25.697763 19.988136
699   0  1 17.132479 25.697690 22.843047
700   0  1 17.131901 25.697524 25.698103
261   0  1  5.709234 17.133427 28.552859
209   0  1  5.710882 28.552982 22.842777
571   0  1 14.276372 19.987142 28.553090
561   0  1 14.276356 17.131951 28.553105
271   0  1  5.706497 19.991311 28.552329
766   0  1 19.987378 17.131925 14.276681
767   0  1 19.987444 17.132003 17.132297
768   0  1 19.987648 17.132032 19.987648
769   0  1 19.987454 17.131771 22.842579
770   0  1 19.987362 17.131798 25.697886
776   0  1 19.987385 19.987245 14.276769
777   0  1 19.987790 19.987641 17.132636
778   0  1 19.988995 19.988710 19.988995
779   0  1 19.988133 19.987701 22.842585
780   0  1 19.987704 19.987305 25.697571
786   0  1 19.987402 22.842479 14.276865
787   0  1 19.987953 22.842763 17.132777
788   0  1 19.989226 22.843267 19.989226
789   0  1 19.989084 22.843715 22.844046
790   0  1 19.987414 22.842068 25.697426
796   0  1 19.987464 25.697694 14.276993
797   0  1 19.988136 25.697763 17.132962
798   0  1 19.989572 25.697813 19.989572
799   0  1 19.989238 25.697748 22.844372
800   0  1 19.987184 25.697162 25.698360
491   0  1 11.421344 25.697888 28.553040
281   0  1  5.707577 22.845335 28.551617
481   0  1 11.421096 22.842648 28.553024
471   0  1 11.420734 19.987539 28.553044
461   0  1 11.420565 17.132427 28.553075
866   0  1 22.842603 17.131885 14.276597
867   0  1 22.842550 17.131874 17.132175
868   0  1 22.842579 17.131771 19.987454
869   0  1 22.842356 17.131266 22.842356
870   0  1 22.842296 17.131396 25.697906
876   0  1 22.842561 19.987155 14.276647
877   0  1 22.842540 19.987284 17.132281
878   0  1 22.842585 19.987701 19.988133
879   0  1 22.843451 19.987626 22.843451
880   0  1 22.842777 19.986926 25.697946
886   0  1 22.842576 22.842416 14.276713
887   0  1 22.842829 22.842626 17.132342
888   0  1 22.844046 22.843715 19.989084
889   0  1 22.852067 22.850961 22.852067
890   0  1 22.843541 22.841805 25.694969
896   0  1 22.842632 25.697670 14.276819
897   0  1 22.843047 25.697690 17.132479
898   0  1 22.844372 25.697748 19.989238
899   0  1 22.849425 25.697329 22.849425
900   0  1 22.845698 25.695041 25.698783
451   0  1 11.420819 14.276989 28.553109
351   0  1  8.565381 14.277243 28.553075
391   0  1  8.566227 25.698113 28.552815
381   0  1  8.565340 22.843181 28.552768
1998  0  1 27.125970 27.124958 21.412362
361   0  1  8.564479 17.133329 28.552985
967   0  1 25.697803 17.131842 17.132055
968   0  1 25.697886 17.131798 19.987362
969   0  1 25.697906 17.131396 22.842296
970   0  1 25.697429 17.131092 25.697429
371   0  1  8.564381 19.988574 28.552859
977   0  1 25.697688 19.987067 17.132021
978   0  1 25.697571 19.987305 19.987704
979   0  1 25.697946 19.986926 22.842777
980   0  1 25.695842 19.984082 25.695842
986   0  1 25.697822 22.842362 14.276588
987   0  1 25.697805 22.842246 17.131919
988   0  1 25.697426 22.842068 19.987414
989   0  1 25.694969 22.841805 22.843541
990   0  1 25.697149 22.838579 25.697149
907   0  1 25.698203 28.552725 17.132213
997   0  1 25.698103 25.697524 17.131901
998   0  1 25.698360 25.697162 19.987184
999   0  1 25.698783 25.695041 22.845698
1000  0  1 25.784494 25.752832 25.784494
1056  0  1  1.427669 15.704261 15.704151
1057  0  1  1.427795 15.704265 18.559632
1058  0  1  1.427910 15.704231 21.414857
1059  0  1  1.427793 15.704129 24.270036
1060  0  1  1.427495 15.704111 27.125314
1066  0  1  1.427641 18.559485 15.704046
1067  0  1  1.427712 18.559572 18.559588
1068  0  1  1.428027 18.559914 21.415095
1069  0  1  1.428172 18.559624 24.269858
1070  0  1  1.427238 18.559394 27.124952
1076  0  1  1.427688 21.414669 15.703985
1077  0  1  1.427692 21.414506 18.559186
1078  0  1  1.427652 21.414987 21.414716
1079  0  1  1.430629 21.415751 24.269595
1080  0  1  1.426815 21.417908 27.122832
1086  0  1  1.427826 24.269982 15.704042
1087  0  1  1.428169 24.269639 18.558882
1088  0  1  1.429756 24.268052 21.411872
1089  0  1  1.428450 24.269358 24.266369
1090  0  1  1.341104 24.356704 27.180622
1096  0  1  1.427881 27.125361 15.704175
1097  0  1  1.428173 27.125343 18.559310
1098  0  1  1.429016 27.126355 21.414235
1099  0  1  1.431873 27.136113 24.271292
1100  0  1  1.492777 27.116751 27.134177
1156  0  1  4.282935 15.704327 15.704080
1157  0  1  4.283048 15.704385 18.559664
1158  0  1  4.283058 15.704491 21.415074
1159  0  1  4.282769 15.704552 24.270416
1160  0  1  4.282551 15.704689 27.125480
1166  0  1  4.282953 18.559548 15.703934
1167  0  1  4.283019 18.559664 18.559561
1168  0  1  4.283013 18.560343 21.415491
1169  0  1  4.281552 18.561294 24.271505
1170  0  1  4.281226 18.561448 27.125538
1176  0  1  4.283065 21.414743 15.703856
1177  0  1  4.283242 21.414566 18.559056
1178  0  1  4.282147 21.415661 21.415416
1179  0  1  4.273531 21.424277 24.278751
1180  0  1  4.276173 21.421635 27.125119
1186  0  1  4.283139 24.270120 15.703985
1187  0  1  4.283302 24.270116 18.559186
1188  0  1  4.282821 24.270156 21.414716
1189  0  1  4.282057 24.267179 24.269595
1190  0  1  4.279900 24.270993 27.122832
1196  0  1  4.283164 27.125501 15.704161
1197  0  1  4.283279 27.125654 18.559525
1198  0  1  4.282934 27.125926 21.415336
1199  0  1  4.283347 27.124265 24.270602
1200  0  1  4.291195 27.130374 27.120554
1256  0  1  7.138170 15.704374 15.704089
1257  0  1  7.138154 15.704507 18.559793
1258  0  1  7.137808 15.704846 21.415431
1259  0  1  7.137645 15.704987 24.270553
1260  0  1  7.137462 15.705172 27.125553
1266  0  1  7.138194 18.559614 15.703950
1267  0  1  7.137950 18.559858 18.559822
1268  0  1  7.136603 18.561205 21.416500
1269  0  1  7.136372 18.561436 24.271057
1270  0  1  7.136026 18.561782 27.125603
1276  0  1  7.138260 21.414855 15.703934
1277  0  1  7.138144 21.414789 18.559561
1278  0  1  7.137465 21.414795 21.415491
1279  0  1  7.136514 21.416256 24.271505
1280  0  1  7.136360 21.416582 27.125538
1286  0  1  7.138323 24.270167 15.704046
1287  0  1  7.138236 24.270096 18.559588
1288  0  1  7.137894 24.269781 21.415095
1289  0  1  7.138184 24.269636 24.269858
1290  0  1  7.138414 24.270570 27.124952
1296  0  1  7.138354 27.125505 15.704202
1297  0  1  7.138266 27.125523 18.559744
1298  0  1  7.138250 27.125271 21.415019
1299  0  1  7.138944 27.125150 24.269634
1300  0  1  7.139340 27.126214 27.124714
1356  0  1  9.993425 15.704383 15.704196
1357  0  1  9.993267 15.704541 18.559906
1358  0  1  9.993115 15.704693 21.415268
1359  0  1  9.992973 15.704835 24.270452
1360  0  1  9.992820 15.704988 27.125546
1366  0  1  9.993434 18.559638 15.704089
1367  0  1  9.993301 18.559654 18.559793
1368  0  1  9.992962 18.560000 21.415431
1369  0  1  9.992821 18.560163 24.270553
1370  0  1  9.992636 18.560346 27.125553
1376  0  1  9.993481 21.414873 15.704080
1377  0  1  9.993423 21.414760 18.559664
1378  0  1  9.993317 21.414750 21.415074
1379  0  1  9.993256 21.415039 24.270416
1380  0  1  9.993119 21.415257 27.125480
1386  0  1  9.993547 24.270139 15.704151
1387  0  1  9.993543 24.270013 18.559632
1388  0  1  9.993577 24.269898 21.414857
1389  0  1  9.993679 24.270015 24.270036
1390  0  1  9.993697 24.270313 27.125314
1396  0  1  9.993615 27.125422 15.704253
1397  0  1  9.993662 27.125352 18.559664
1398  0  1  9.993804 27.125278 21.414793
1399  0  1  9.993947 27.125388 24.269947
1400  0  1  9.993883 27.125635 27.125293
1456  0  1 12.848890 15.704310 15.704302
1457  0  1 12.848877 15.704299 18.559769
1458  0  1 12.848816 15.704312 21.415071
1459  0  1 12.848723 15.704362 24.270305
1460  0  1 12.848606 15.704444 27.125513
1466  0  1 12.848890 18.559630 15.704252
1467  0  1 12.848917 18.559588 18.559715
1468  0  1 12.848829 18.559595 21.415035
1469  0  1 12.848733 18.559612 24.270269
1470  0  1 12.848605 18.559674 27.125484
1476  0  1 12.848939 21.414885 15.704262
1477  0  1 12.849001 21.414813 18.559675
1478  0  1 12.848951 21.414771 21.414945
1479  0  1 12.848885 21.414786 24.270206
1480  0  1 12.848779 21.414842 27.125460
1486  0  1 12.849022 24.270123 15.704322
1487  0  1 12.849110 24.270056 18.559686
1488  0  1 12.849077 24.270011 21.414902
1489  0  1 12.849010 24.270032 24.270152
1490  0  1 12.848949 24.270105 27.125457
1496  0  1 12.849122 27.125357 15.704406
1497  0  1 12.849242 27.125315 18.559741
1498  0  1 12.849226 27.125299 21.414932
1499  0  1 12.849137 27.125349 24.270177
1500  0  1 12.849036 27.125430 27.125498
1556  0  1 15.704446 15.704288 15.704446
1557  0  1 15.704479 15.704217 18.559778
1558  0  1 15.704430 15.704148 21.414994
1559  0  1 15.704350 15.704144 24.270232
1560  0  1 15.704253 15.704193 27.125506
1566  0  1 15.704488 18.559684 15.704488
1567  0  1 15.704629 18.559747 18.559896
1568  0  1 15.704499 18.559599 21.414967
1569  0  1 15.704353 18.559486 24.270136
1570  0  1 15.704202 18.559454 27.125423
1576  0  1 15.704562 21.414947 15.704562
1577  0  1 15.704743 21.415007 18.559981
1578  0  1 15.704597 21.414952 21.415086
1579  0  1 15.704350 21.414740 24.270147
1580  0  1 15.704161 21.414644 27.125427
1586  0  1 15.704664 24.270150 15.704664
1587  0  1 15.704875 24.270176 18.560086
1588  0  1 15.704693 24.270143 21.415188
1589  0  1 15.704359 24.270022 24.270298
1590  0  1 15.704175 24.269927 27.125567
1596  0  1 15.704779 27.125319 15.704779
1597  0  1 15.705033 27.125285 18.560217
1598  0  1 15.704864 27.125254 21.415329
1599  0  1 15.704502 27.125234 24.270438
1600  0  1 15.704254 27.125250 27.125678
1656  0  1 18.559778 15.704217 15.704479
1657  0  1 18.559878 15.704187 18.559878
1658  0  1 18.559797 15.704050 21.414997
1659  0  1 18.559722 15.704051 24.270242
1660  0  1 18.559664 15.704146 27.125576
1666  0  1 18.559896 18.559747 15.704629
1667  0  1 18.560418 18.560180 18.560418
1668  0  1 18.560182 18.559855 21.415090
1669  0  1 18.559940 18.559611 24.270089
1670  0  1 18.559744 18.559542 27.125405
1676  0  1 18.559981 21.415007 15.704743
1677  0  1 18.560669 21.415368 18.560669
1678  0  1 18.560781 21.415657 21.415830
1679  0  1 18.559966 21.414853 24.270046
1680  0  1 18.559525 21.414529 27.125274
1686  0  1 18.560086 24.270176 15.704875
1687  0  1 18.560893 24.270352 18.560893
1688  0  1 18.560917 24.270430 21.416065
1689  0  1 18.559923 24.270113 24.270603
1690  0  1 18.559310 24.269635 27.125585
1696  0  1 18.560217 27.125285 15.705033
1697  0  1 18.561119 27.125195 18.561119
1698  0  1 18.561217 27.125069 21.416364
1699  0  1 18.560258 27.124978 24.270971
1700  0  1 18.559371 27.125025 27.125903
1756  0  1 21.414994 15.704148 15.704430
1757  0  1 21.414997 15.704050 18.559797
1758  0  1 21.414916 15.703827 21.414916
1759  0  1 21.414831 15.703832 24.270228
1760  0  1 21.414793 15.704004 27.125650
1766  0  1 21.414967 18.559599 15.704499
1767  0  1 21.415090 18.559855 18.560182
1768  0  1 21.415514 18.559893 21.415514
1769  0  1 21.415118 18.559405 24.270183
1770  0  1 21.415019 18.559558 27.125657
1776  0  1 21.415086 21.414952 15.704597
1777  0  1 21.415830 21.415657 18.560781
1778  0  1 21.418819 21.418354 21.418819
1779  0  1 21.416061 21.415312 24.269513
1780  0  1 21.415336 21.414874 27.125002
1786  0  1 21.415188 24.270143 15.704693
1787  0  1 21.416065 24.270430 18.560917
1788  0  1 21.418530 24.270877 21.418530
1789  0  1 21.417409 24.271281 24.272241
1790  0  1 21.414235 24.268792 27.124573
1796  0  1 21.415329 27.125254 15.704864
1797  0  1 21.416364 27.125069 18.561217
1798  0  1 21.419101 27.124539 21.419101
1799  0  1 21.418021 27.123827 24.273125
1800  0  1 21.412362 27.124958 27.125970
1856  0  1 24.270232 15.704144 15.704350
1857  0  1 24.270242 15.704051 18.559722
1858  0  1 24.270228 15.703832 21.414831
1859  0  1 24.270010 15.703653 24.270010
1860  0  1 24.269947 15.703861 27.125540
1866  0  1 24.270136 18.559486 15.704353
1867  0  1 24.270089 18.559611 18.559940
1868  0  1 24.270183 18.559405 21.415118
1869  0  1 24.269511 18.558217 24.269511
1870  0  1 24.269634 18.558864 27.125778
1876  0  1 24.270147 21.414740 15.704350
1877  0  1 24.270046 21.414853 18.559966
1878  0  1 24.269513 21.415312 21.416061
1879  0  1 24.271168 21.414663 24.271168
1880  0  1 24.270602 21.414461 27.126663
1886  0  1 24.270298 24.270022 15.704359
1887  0  1 24.270603 24.270113 18.559923
1888  0  1 24.272241 24.271281 21.417409
1889  0  1 24.295463 24.291620 24.295463
1890  0  1 24.271292 24.265935 27.114815
1896  0  1 24.270438 27.125234 15.704502
1897  0  1 24.270971 27.124978 18.560258
1898  0  1 24.273125 27.123827 21.418021
1899  0  1 24.286743 27.116726 24.286743
1900  0  1 24.225672 27.127124 27.123804
1956  0  1 27.125506 15.704193 15.704253
1957  0  1 27.125576 15.704146 18.559664
1958  0  1 27.125650 15.704004 21.414793
1959  0  1 27.125540 15.703861 24.269947
1960  0  1 27.125293 15.703925 27.125293
1966  0  1 27.125423 18.559454 15.704202
1967  0  1 27.125405 18.559542 18.559744
1968  0  1 27.125657 18.559558 21.415019
1969  0  1 27.125778 18.558864 24.269634
1970  0  1 27.124714 18.558468 27.124714
1976  0  1 27.125427 21.414644 15.704161
1977  0  1 27.125274 21.414529 18.559525
1978  0  1 27.125002 21.414874 21.415336
1979  0  1 27.126663 21.414461 24.270602
1980  0  1 27.120554 21.406613 27.120554
1986  0  1 27.125567 24.269927 15.704175
1987  0  1 27.125585 24.269635 18.559310
1988  0  1 27.124573 24.268792 21.414235
1989  0  1 27.114815 24.265935 24.271292
1990  0  1 27.134177 24.205031 27.134177
1996  0  1 27.125678 27.125250 15.704254
1997  0  1 27.125903 27.125025 18.559371
809   0  1 22.850753 28.548613 22.850753
7     0  1  0.000284 28.552825 17.131901
10    0  1 28.498096 28.466434 25.784494
106   0  1  2.855446 28.553106 14.276588
906   0  1 25.697963 28.552965 14.276786
71    0  1 28.552748 19.984572 28.552748
6     0  1  0.000141 28.553033 14.276649
996   0  1 25.697895 25.697667 14.276649
96    0  1  0.000100 25.697708 14.276562
291   0  1  5.713236 25.698180 28.552748

