Generated by pymatgen.io.lammps.data.LammpsData

1999  atoms

   2  atom types

0.000000 28.553120  xlo xhi
0.000000 28.553120  ylo yhi
0.000000 28.553120  zlo zhi
0.000000 0.000000 0.000000  xy xz yz

Masses

1  55.847000
2  30.973762

Atoms

1945  0  1 27.125392 12.848976 12.848979
2     0  1  0.001475  0.001618  2.855278
1944  0  1 27.125392 12.848976  9.993505
1943  0  1 27.125392 12.848976  7.138204
11    0  1  0.001475  2.855274  0.001621
12    0  1 28.552627  2.851741  2.851745
13    0  1 28.552789  2.854625  5.709784
14    0  1 28.552976  2.855209  8.565803
15    0  1 28.553028  2.855342 11.421285
22    0  1 28.552789  5.709780  2.854628
23    0  1 28.552849  5.709452  5.709456
24    0  1 28.552965  5.710253  8.565507
25    0  1 28.553014  5.710555 11.421201
1813  0  1 24.270384  4.282396  7.137608
32    0  1 28.552976  8.565799  2.855212
33    0  1 28.552965  8.565504  5.710256
34    0  1 28.552985  8.565553  8.565556
35    0  1 28.553009  8.565793 11.421170
1812  0  1 24.270788  4.280923  4.280927
42    0  1 28.553028 11.421282  2.855346
43    0  1 28.553014 11.421198  5.710559
44    0  1 28.553009 11.421166  8.565797
45    0  1 28.553011 11.421208 11.421212
101   0  1  2.855131  0.001618  0.001621
1942  0  1 27.125392 12.848976  4.282986
1941  0  1 27.125392 12.848976  1.427726
1935  0  1 27.125392  9.993501 12.848979
1934  0  1 27.125392  9.993410  9.993413
1811  0  1 24.270949  4.281799  1.426862
112   0  1  2.848752  2.848896  2.848899
113   0  1  2.854232  2.854375  5.709446
114   0  1  2.854991  2.855135  8.565681
115   0  1  2.855161  2.855304 11.421250
1805  0  1 24.270101  1.427707 12.848979
122   0  1  2.854232  5.709442  2.854379
123   0  1  2.854594  5.709418  5.709421
124   0  1  2.854963  5.710214  8.565470
125   0  1  2.855125  5.710523 11.421187
1804  0  1 24.270135  1.427673  9.993617
132   0  1  2.854991  8.565677  2.855138
133   0  1  2.854963  8.565466  5.710218
134   0  1  2.855039  8.565548  8.565551
135   0  1  2.855119  8.565783 11.421169
1803  0  1 24.270264  1.427544  7.138141
142   0  1  2.855161 11.421246  2.855308
143   0  1  2.855125 11.421183  5.710527
144   0  1  2.855119 11.421165  8.565786
145   0  1  2.855130 11.421208 11.421211
201   0  1  5.710768  0.000148  0.000152
1933  0  1 27.125392  9.993344  7.138051
1932  0  1 27.125392  9.993477  4.282892
1931  0  1 27.125392  9.993664  1.427701
1925  0  1 27.125392  7.138200 12.848979
1802  0  1 24.270949  1.426859  4.281803
212   0  1  5.709299  2.854375  2.854379
213   0  1  5.709274  2.854738  5.709421
214   0  1  5.710071  2.855106  8.565470
215   0  1  5.710380  2.855269 11.421187
1801  0  1 24.285887  1.411921  1.411925
222   0  1  5.709274  5.709418  2.854741
223   0  1  5.709114  5.709258  5.709261
224   0  1  5.710033  5.710176  8.565409
225   0  1  5.710344  5.710487 11.421165
1745  0  1 21.414906 12.848976 12.848979
232   0  1  5.710071  8.565466  2.855110
233   0  1  5.710033  8.565406  5.710180
234   0  1  5.710210  8.565551  8.565555
235   0  1  5.710352  8.565772 11.421169
1744  0  1 21.414912 12.848976  9.993498
242   0  1  5.710380 11.421183  2.855272
243   0  1  5.710344 11.421162  5.710491
244   0  1  5.710352 11.421166  8.565775
245   0  1  5.710381 11.421209 11.421213
1924  0  1 27.125392  7.138047  9.993347
1923  0  1 27.125392  7.137599  7.137603
1922  0  1 27.125392  7.137659  4.282450
1921  0  1 27.125392  7.138258  1.427597
1915  0  1 27.125392  4.282983 12.848979
1743  0  1 21.414914 12.848976  7.138165
312   0  1  8.565534  2.855135  2.855138
313   0  1  8.565323  2.855106  5.710218
314   0  1  8.565404  2.855183  8.565551
315   0  1  8.565639  2.855263 11.421169
1742  0  1 21.414888 12.848976  4.282923
322   0  1  8.565323  5.710214  2.855110
323   0  1  8.565262  5.710176  5.710180
324   0  1  8.565408  5.710353  8.565555
325   0  1  8.565628  5.710496 11.421169
1741  0  1 21.414846 12.848976  1.427682
332   0  1  8.565404  8.565548  2.855186
333   0  1  8.565408  8.565551  5.710356
334   0  1  8.565462  8.565605  8.565609
335   0  1  8.565636  8.565780 11.421180
1735  0  1 21.414912  9.993494 12.848979
342   0  1  8.565639 11.421165  2.855266
343   0  1  8.565628 11.421166  5.710499
344   0  1  8.565636 11.421177  8.565783
345   0  1  8.565682 11.421216 11.421219
1914  0  1 27.125392  4.282888  9.993480
1913  0  1 27.125392  4.282446  7.137662
1912  0  1 27.125392  4.280937  4.280940
1911  0  1 27.125392  4.282123  1.426917
1905  0  1 27.125392  1.427723 12.848979
1734  0  1 21.414946  9.993408  9.993412
412   0  1 11.421103  2.855304  2.855308
413   0  1 11.421040  2.855269  5.710527
414   0  1 11.421022  2.855263  8.565786
415   0  1 11.421064  2.855273 11.421211
1733  0  1 21.415000  9.993325  7.138017
422   0  1 11.421040  5.710523  2.855272
423   0  1 11.421018  5.710487  5.710491
424   0  1 11.421022  5.710496  8.565775
425   0  1 11.421066  5.710525 11.421213
1732  0  1 21.415002  9.993380  4.282810
432   0  1 11.421022  8.565783  2.855266
433   0  1 11.421022  8.565772  5.710499
434   0  1 11.421033  8.565780  8.565783
435   0  1 11.421072  8.565826 11.421219
1731  0  1 21.414948  9.993451  1.427631
442   0  1 11.421064 11.421208  2.855277
443   0  1 11.421066 11.421209  5.710528
444   0  1 11.421072 11.421216  8.565829
445   0  1 11.421086 11.421229 11.421232
1904  0  1 27.125392  1.427698  9.993668
1903  0  1 27.125392  1.427594  7.138261
1902  0  1 27.125392  1.426914  4.282127
1901  0  1 27.125392  1.421176  1.421179
1845  0  1 24.270153 12.848976 12.848979
1725  0  1 21.414914  7.138161 12.848979
512   0  1 14.276562  2.855304  2.855308
513   0  1 14.276625  2.855269  5.710527
514   0  1 14.276643  2.855263  8.565786
515   0  1 14.276600  2.855273 11.421211
1724  0  1 21.415000  7.138014  9.993328
522   0  1 14.276625  5.710523  2.855272
523   0  1 14.276646  5.710487  5.710491
524   0  1 14.276642  5.710496  8.565775
525   0  1 14.276599  5.710525 11.421213
1723  0  1 21.415255  7.137576  7.137579
532   0  1 14.276643  8.565783  2.855266
533   0  1 14.276642  8.565772  5.710499
534   0  1 14.276631  8.565780  8.565783
535   0  1 14.276592  8.565826 11.421219
1722  0  1 21.415534  7.137425  4.282277
542   0  1 14.276600 11.421208  2.855277
543   0  1 14.276599 11.421209  5.710528
544   0  1 14.276592 11.421216  8.565829
545   0  1 14.276579 11.421229 11.421232
1844  0  1 24.270154 12.848976  9.993503
1843  0  1 24.270148 12.848976  7.138192
1842  0  1 24.270130 12.848976  4.282966
1841  0  1 24.270101 12.848976  1.427711
1835  0  1 24.270154  9.993499 12.848979
1721  0  1 21.415412  7.137605  1.427427
612   0  1 17.132131  2.855135  2.855138
613   0  1 17.132342  2.855106  5.710218
614   0  1 17.132260  2.855183  8.565551
615   0  1 17.132025  2.855263 11.421169
1715  0  1 21.414888  4.282920 12.848979
622   0  1 17.132342  5.710214  2.855110
623   0  1 17.132402  5.710176  5.710180
624   0  1 17.132257  5.710353  8.565555
625   0  1 17.132036  5.710496 11.421169
1714  0  1 21.415002  4.282806  9.993384
632   0  1 17.132260  8.565548  2.855186
633   0  1 17.132257  8.565551  5.710356
634   0  1 17.132203  8.565605  8.565609
635   0  1 17.132028  8.565780 11.421180
1713  0  1 21.415534  4.282274  7.137429
642   0  1 17.132025 11.421165  2.855266
643   0  1 17.132036 11.421166  5.710499
644   0  1 17.132028 11.421177  8.565783
645   0  1 17.131982 11.421216 11.421219
1642  0  1 18.559647 12.848976  4.282897
1834  0  1 24.270168  9.993409  9.993412
1833  0  1 24.270188  9.993338  7.138040
1832  0  1 24.270180  9.993451  4.282864
1831  0  1 24.270135  9.993614  1.427676
1712  0  1 21.417692  4.280116  4.280120
712   0  1 19.988366  2.854375  2.854379
713   0  1 19.988390  2.854738  5.709421
714   0  1 19.987594  2.855106  8.565470
715   0  1 19.987285  2.855269 11.421187
1711  0  1 21.416885  4.280923  1.427023
722   0  1 19.988390  5.709418  2.854741
723   0  1 19.988550  5.709258  5.709261
724   0  1 19.987632  5.710176  8.565409
725   0  1 19.987321  5.710487 11.421165
1705  0  1 21.414846  1.427678 12.848979
732   0  1 19.987594  8.565466  2.855110
733   0  1 19.987632  8.565406  5.710180
734   0  1 19.987455  8.565551  8.565555
735   0  1 19.987312  8.565772 11.421169
1704  0  1 21.414948  1.427628  9.993454
742   0  1 19.987285 11.421183  2.855272
743   0  1 19.987321 11.421162  5.710491
744   0  1 19.987312 11.421166  8.565775
745   0  1 19.987283 11.421209 11.421213
801   0  1 22.842534  0.001618  0.001621
1825  0  1 24.270148  7.138189 12.848979
1824  0  1 24.270188  7.138037  9.993341
1823  0  1 24.270306  7.137590  7.137593
1822  0  1 24.270384  7.137605  4.282400
1703  0  1 21.415412  1.427424  7.137608
812   0  1 22.848912  2.848896  2.848899
813   0  1 22.843433  2.854375  5.709446
814   0  1 22.842673  2.855135  8.565681
815   0  1 22.842504  2.855304 11.421250
1702  0  1 21.416885  1.427020  4.280927
822   0  1 22.843433  5.709442  2.854379
823   0  1 22.843070  5.709418  5.709421
824   0  1 22.842702  5.710214  8.565470
825   0  1 22.842539  5.710523 11.421187
1701  0  1 21.416009  1.426859  1.426862
832   0  1 22.842673  8.565677  2.855138
833   0  1 22.842702  8.565466  5.710218
834   0  1 22.842625  8.565548  8.565551
835   0  1 22.842545  8.565783 11.421169
1645  0  1 18.559630 12.848976 12.848979
842   0  1 22.842504 11.421246  2.855308
843   0  1 22.842539 11.421183  5.710527
844   0  1 22.842545 11.421165  8.565786
845   0  1 22.842535 11.421208 11.421211
1821  0  1 24.270264  7.138138  1.427548
902   0  1 25.696190  0.001618  2.855278
1641  0  1 18.559619 12.848976  1.427663
1815  0  1 24.270130  4.282962 12.848979
1814  0  1 24.270180  4.282860  9.993454
911   0  1 25.696190  2.855274  0.001621
912   0  1 25.698158  2.851741  2.851745
913   0  1 25.697996  2.854625  5.709784
914   0  1 25.697808  2.855209  8.565803
915   0  1 25.697757  2.855342 11.421285
441   0  1 11.421065 11.421208  0.000038
922   0  1 25.697996  5.709780  2.854628
923   0  1 25.697936  5.709452  5.709456
924   0  1 25.697820  5.710253  8.565507
925   0  1 25.697770  5.710555 11.421201
1644  0  1 18.559646 12.848976  9.993497
932   0  1 25.697808  8.565799  2.855212
933   0  1 25.697820  8.565503  5.710256
934   0  1 25.697800  8.565553  8.565556
935   0  1 25.697775  8.565793 11.421170
1643  0  1 18.559665 12.848976  7.138146
942   0  1 25.697757 11.421282  2.855346
943   0  1 25.697770 11.421198  5.710559
944   0  1 25.697775 11.421166  8.565797
945   0  1 25.697774 11.421208 11.421212
1001  0  1  1.411778  1.411921  1.411925
1002  0  1  1.426715  1.426859  4.281803
1003  0  1  1.427401  1.427544  7.138141
1004  0  1  1.427529  1.427673  9.993617
1005  0  1  1.427564  1.427707 12.848979
1011  0  1  1.426715  4.281799  1.426862
1012  0  1  1.426876  4.280923  4.280927
1013  0  1  1.427280  4.282396  7.137608
1014  0  1  1.427485  4.282860  9.993454
1015  0  1  1.427535  4.282962 12.848979
1021  0  1  1.427401  7.138138  1.427548
1022  0  1  1.427280  7.137605  4.282400
1023  0  1  1.427359  7.137590  7.137593
1024  0  1  1.427477  7.138037  9.993341
1025  0  1  1.427516  7.138189 12.848979
1031  0  1  1.427529  9.993614  1.427676
1032  0  1  1.427485  9.993451  4.282864
1033  0  1  1.427477  9.993338  7.138040
1034  0  1  1.427497  9.993409  9.993412
1035  0  1  1.427511  9.993499 12.848979
1041  0  1  1.427564 12.848976  1.427711
1042  0  1  1.427535 12.848976  4.282966
1043  0  1  1.427516 12.848976  7.138192
1044  0  1  1.427511 12.848976  9.993503
1045  0  1  1.427512 12.848976 12.848979
1101  0  1  4.281656  1.426859  1.426862
1102  0  1  4.280780  1.427020  4.280927
1103  0  1  4.282253  1.427424  7.137608
1104  0  1  4.282717  1.427628  9.993454
1105  0  1  4.282819  1.427678 12.848979
1111  0  1  4.280780  4.280923  1.427023
1112  0  1  4.279973  4.280116  4.280120
1113  0  1  4.282130  4.282274  7.137429
1114  0  1  4.282663  4.282806  9.993384
1115  0  1  4.282776  4.282920 12.848979
1121  0  1  4.282253  7.137605  1.427427
1122  0  1  4.282130  7.137425  4.282277
1123  0  1  4.282409  7.137576  7.137579
1124  0  1  4.282665  7.138014  9.993328
1125  0  1  4.282750  7.138161 12.848979
1131  0  1  4.282717  9.993451  1.427631
1132  0  1  4.282663  9.993380  4.282810
1133  0  1  4.282665  9.993325  7.138017
1134  0  1  4.282719  9.993408  9.993412
1135  0  1  4.282752  9.993494 12.848979
1141  0  1  4.282819 12.848976  1.427682
1142  0  1  4.282776 12.848976  4.282923
1143  0  1  4.282750 12.848976  7.138165
1144  0  1  4.282752 12.848976  9.993498
1145  0  1  4.282758 12.848976 12.848979
1201  0  1  7.137994  1.427544  1.427548
1202  0  1  7.137461  1.427424  4.282400
1203  0  1  7.137446  1.427502  7.137593
1204  0  1  7.137893  1.427620  9.993341
1205  0  1  7.138045  1.427660 12.848979
1211  0  1  7.137461  4.282396  1.427427
1212  0  1  7.137282  4.282274  4.282277
1213  0  1  7.137432  4.282553  7.137579
1214  0  1  7.137871  4.282808  9.993328
1215  0  1  7.138018  4.282894 12.848979
1221  0  1  7.137446  7.137590  1.427506
1222  0  1  7.137432  7.137576  4.282556
1223  0  1  7.137456  7.137599  7.137603
1224  0  1  7.137868  7.138012  9.993326
1225  0  1  7.137999  7.138143 12.848979
1231  0  1  7.137893  9.993338  1.427624
1232  0  1  7.137871  9.993325  4.282812
1233  0  1  7.137868  9.993322  7.138015
1234  0  1  7.137965  9.993418  9.993422
1235  0  1  7.138018  9.993493 12.848979
1241  0  1  7.138045 12.848976  1.427663
1242  0  1  7.138018 12.848976  4.282897
1243  0  1  7.137999 12.848976  7.138146
1244  0  1  7.138018 12.848976  9.993497
1245  0  1  7.138034 12.848976 12.848979
1301  0  1  9.993470  1.427673  1.427676
1302  0  1  9.993307  1.427628  4.282864
1303  0  1  9.993195  1.427620  7.138040
1304  0  1  9.993265  1.427640  9.993412
1305  0  1  9.993356  1.427654 12.848979
1311  0  1  9.993307  4.282860  1.427631
1312  0  1  9.993237  4.282806  4.282810
1313  0  1  9.993181  4.282808  7.138017
1314  0  1  9.993265  4.282862  9.993412
1315  0  1  9.993351  4.282896 12.848979
1321  0  1  9.993195  7.138037  1.427624
1322  0  1  9.993181  7.138014  4.282812
1323  0  1  9.993179  7.138012  7.138015
1324  0  1  9.993275  7.138109  9.993422
1325  0  1  9.993350  7.138162 12.848979
1331  0  1  9.993265  9.993409  1.427643
1332  0  1  9.993265  9.993408  4.282866
1333  0  1  9.993275  9.993418  7.138112
1334  0  1  9.993312  9.993455  9.993458
1335  0  1  9.993362  9.993506 12.848979
1341  0  1  9.993356 12.848976  1.427658
1342  0  1  9.993351 12.848976  4.282899
1343  0  1  9.993350 12.848976  7.138165
1344  0  1  9.993362 12.848976  9.993509
1345  0  1  9.993383 12.848976 12.848979
1401  0  1 12.848832  1.427707  1.427711
1402  0  1 12.848832  1.427678  4.282966
1403  0  1 12.848832  1.427660  7.138192
1404  0  1 12.848832  1.427654  9.993503
1405  0  1 12.848832  1.427655 12.848979
1411  0  1 12.848832  4.282962  1.427682
1412  0  1 12.848832  4.282920  4.282923
1413  0  1 12.848832  4.282894  7.138165
1414  0  1 12.848832  4.282896  9.993498
1415  0  1 12.848832  4.282902 12.848979
1421  0  1 12.848832  7.138189  1.427663
1422  0  1 12.848832  7.138161  4.282897
1423  0  1 12.848832  7.138143  7.138146
1424  0  1 12.848832  7.138162  9.993497
1425  0  1 12.848832  7.138178 12.848979
1431  0  1 12.848832  9.993499  1.427658
1432  0  1 12.848832  9.993494  4.282899
1433  0  1 12.848832  9.993493  7.138165
1434  0  1 12.848832  9.993506  9.993509
1435  0  1 12.848832  9.993526 12.848979
1441  0  1 12.848832 12.848976  1.427659
1442  0  1 12.848832 12.848976  4.282905
1443  0  1 12.848832 12.848976  7.138181
1444  0  1 12.848832 12.848976  9.993530
1445  0  1 12.848832 12.848976 12.848979
1501  0  1 15.704194  1.427673  1.427676
1502  0  1 15.704357  1.427628  4.282864
1503  0  1 15.704470  1.427620  7.138040
1504  0  1 15.704399  1.427640  9.993412
1505  0  1 15.704309  1.427654 12.848979
1511  0  1 15.704357  4.282860  1.427631
1512  0  1 15.704428  4.282806  4.282810
1513  0  1 15.704483  4.282808  7.138017
1514  0  1 15.704400  4.282862  9.993412
1515  0  1 15.704314  4.282896 12.848979
1521  0  1 15.704470  7.138037  1.427624
1522  0  1 15.704483  7.138014  4.282812
1523  0  1 15.704486  7.138012  7.138015
1524  0  1 15.704390  7.138109  9.993422
1525  0  1 15.704315  7.138162 12.848979
1531  0  1 15.704399  9.993409  1.427643
1532  0  1 15.704400  9.993408  4.282866
1533  0  1 15.704390  9.993418  7.138112
1534  0  1 15.704353  9.993455  9.993458
1535  0  1 15.704302  9.993506 12.848979
1541  0  1 15.704309 12.848976  1.427658
1542  0  1 15.704314 12.848976  4.282899
1543  0  1 15.704315 12.848976  7.138165
1544  0  1 15.704302 12.848976  9.993509
1545  0  1 15.704282 12.848976 12.848979
1601  0  1 18.559670  1.427544  1.427548
1602  0  1 18.560203  1.427424  4.282400
1603  0  1 18.560218  1.427502  7.137593
1604  0  1 18.559771  1.427620  9.993341
1605  0  1 18.559619  1.427660 12.848979
1611  0  1 18.560203  4.282396  1.427427
1612  0  1 18.560383  4.282274  4.282277
1613  0  1 18.560232  4.282553  7.137579
1614  0  1 18.559794  4.282808  9.993328
1615  0  1 18.559647  4.282894 12.848979
1621  0  1 18.560218  7.137590  1.427506
1622  0  1 18.560232  7.137576  4.282556
1623  0  1 18.560209  7.137599  7.137603
1624  0  1 18.559796  7.138012  9.993326
1625  0  1 18.559665  7.138143 12.848979
1631  0  1 18.559771  9.993338  1.427624
1632  0  1 18.559794  9.993325  4.282812
1633  0  1 18.559796  9.993322  7.138015
1634  0  1 18.559699  9.993418  9.993422
1635  0  1 18.559646  9.993493 12.848979
411   0  1 11.421138  2.855342  0.000054
4     0  1 28.553028  0.000051  8.566082
341   0  1  8.565650 11.421166  0.000036
331   0  1  8.565409  8.565553  0.000012
405   0  1 11.421065  0.000034 11.421212
311   0  1  8.565656  2.855209  0.000003
241   0  1  5.710412 11.421198  0.000041
403   0  1 11.421054  0.000037  5.710559
141   0  1  2.855199 11.421282  0.000055
402   0  1 11.421138  0.000051  2.855346
305   0  1  8.565650  0.000033 11.421170
304   0  1  8.565409  0.000008  8.565556
131   0  1  2.855065  8.565799  0.000003
404   0  1 11.421023  0.000033  8.565797
41    0  1 28.553044 11.421342  0.000071
31    0  1 28.553028  8.566079  0.000055
502   0  1 14.276526  0.000051  2.855346
205   0  1  5.710412  0.000037 11.421201
503   0  1 14.276610  0.000038  5.710559
105   0  1  2.855199  0.000051 11.421285
504   0  1 14.276642  0.000033  8.565797
301   0  1  8.565935  0.000051  0.000055
505   0  1 14.276600  0.000034 11.421212
604   0  1 17.132255  0.000008  8.565556
605   0  1 17.132015  0.000033 11.421170
705   0  1 19.987253  0.000038 11.421201
5     0  1 28.553044  0.000067 11.421345
401   0  1 11.421198  0.000067  0.000071
805   0  1 22.842466  0.000051 11.421285
904   0  1 25.697757  0.000051  8.566082
905   0  1 25.697741  0.000067 11.421345
903   0  1 25.697660  0.000148  5.710915
3     0  1  0.000005  0.000148  5.710915
21    0  1  0.000005  5.710912  0.000152
501   0  1 14.276466  0.000067  0.000071
601   0  1 17.131729  0.000051  0.000055
921   0  1 25.697660  5.710912  0.000152
701   0  1 19.986896  0.000148  0.000152
741   0  1 19.987253 11.421198  0.000041
431   0  1 11.421023  8.565793  0.000036
421   0  1 11.421054  5.710555  0.000041
641   0  1 17.132015 11.421166  0.000036
831   0  1 22.842599  8.565799  0.000003
631   0  1 17.132255  8.565553  0.000012
941   0  1 25.697741 11.421342  0.000071
511   0  1 14.276526  2.855342  0.000055
931   0  1 25.697757  8.566079  0.000055
611   0  1 17.132009  2.855209  0.000003
841   0  1 22.842466 11.421282  0.000055
541   0  1 14.276600 11.421208  0.000038
531   0  1 14.276642  8.565793  0.000036
521   0  1 14.276610  5.710555  0.000041
610   0  1 17.131729  0.000051 25.697904
1950  0  1 27.125392 12.848976 27.125539
1949  0  1 27.125392 12.848976 24.270232
8     0  1  0.000005  0.000148 19.987043
9     0  1  0.001475  0.001618 22.842680
1948  0  1 27.125392 12.848976 21.414972
16    0  1 28.553028  2.855342 14.276673
17    0  1 28.552976  2.855209 17.132156
18    0  1 28.552789  2.854625 19.988175
19    0  1 28.552627  2.851741 22.846214
20    0  1  0.001475  2.855274 25.696337
6     0  1 28.553044  0.000067 14.276613
27    0  1 28.552965  5.710253 17.132451
28    0  1 28.552849  5.709452 19.988503
29    0  1 28.552789  5.709780 22.843330
30    0  1  0.000005  5.710912 25.697807
710   0  1 19.986896  0.000148 25.697807
37    0  1 28.552985  8.565553 17.132402
38    0  1 28.552965  8.565503 19.987702
39    0  1 28.552976  8.565799 22.842746
40    0  1 28.553028  8.566079 25.697904
46    0  1 28.553011 11.421208 14.276747
47    0  1 28.553009 11.421166 17.132162
48    0  1 28.553014 11.421198 19.987400
49    0  1 28.553028 11.421282 22.842613
50    0  1 28.553044 11.421342 25.697888
1947  0  1 27.125392 12.848976 18.559755
1946  0  1 27.125392 12.848976 15.704453
1940  0  1 27.125392  9.993748 27.125539
1939  0  1 27.125392  9.993664 24.270257
110   0  1  2.855131  0.001618 25.696337
116   0  1  2.855161  2.855304 14.276709
117   0  1  2.854991  2.855135 17.132277
118   0  1  2.854232  2.854375 19.988513
119   0  1  2.848752  2.848896 22.849059
120   0  1  2.851598  2.851741 25.698305
126   0  1  2.855125  5.710523 14.276771
127   0  1  2.854963  5.710214 17.132489
128   0  1  2.854594  5.709418 19.988537
129   0  1  2.854232  5.709442 22.843579
130   0  1  2.854482  5.709780 25.698143
136   0  1  2.855119  8.565783 14.276790
137   0  1  2.855039  8.565548 17.132407
138   0  1  2.854963  8.565466 19.987741
139   0  1  2.854991  8.565677 22.842820
140   0  1  2.855065  8.565799 25.697955
146   0  1  2.855130 11.421208 14.276747
147   0  1  2.855119 11.421165 17.132172
148   0  1  2.855125 11.421183 19.987432
149   0  1  2.855161 11.421246 22.842651
150   0  1  2.855199 11.421282 25.697904
1938  0  1 27.125392  9.993477 21.415067
1937  0  1 27.125392  9.993344 18.559908
1936  0  1 27.125392  9.993410 15.704545
1930  0  1 27.125392  7.138662 27.125539
210   0  1  5.710768  0.000148 25.697807
216   0  1  5.710380  2.855269 14.276771
217   0  1  5.710071  2.855106 17.132489
218   0  1  5.709274  2.854738 19.988537
219   0  1  5.709299  2.854375 22.843579
220   0  1  5.709637  2.854625 25.698143
226   0  1  5.710344  5.710487 14.276793
227   0  1  5.710033  5.710176 17.132549
228   0  1  5.709114  5.709258 19.988697
229   0  1  5.709274  5.709418 22.843217
230   0  1  5.709309  5.709452 25.698083
236   0  1  5.710352  8.565772 14.276789
237   0  1  5.710210  8.565551 17.132403
238   0  1  5.710033  8.565406 19.987779
239   0  1  5.710071  8.565466 22.842849
240   0  1  5.710109  8.565503 25.697966
246   0  1  5.710381 11.421209 14.276746
247   0  1  5.710352 11.421166 17.132183
248   0  1  5.710344 11.421162 19.987468
249   0  1  5.710380 11.421183 22.842686
250   0  1  5.710412 11.421198 25.697917
1929  0  1 27.125392  7.138258 24.270361
1928  0  1 27.125392  7.137659 21.415509
1927  0  1 27.125392  7.137599 18.560356
1926  0  1 27.125392  7.138047 15.704611
1920  0  1 27.125392  4.285460 27.125539
316   0  1  8.565639  2.855263 14.276790
317   0  1  8.565404  2.855183 17.132407
318   0  1  8.565323  2.855106 19.987741
319   0  1  8.565534  2.855135 22.842820
320   0  1  8.565656  2.855209 25.697955
326   0  1  8.565628  5.710496 14.276789
327   0  1  8.565408  5.710353 17.132403
328   0  1  8.565262  5.710176 19.987779
329   0  1  8.565323  5.710214 22.842849
330   0  1  8.565360  5.710253 25.697966
336   0  1  8.565636  8.565780 14.276778
337   0  1  8.565462  8.565605 17.132349
338   0  1  8.565408  8.565551 19.987602
339   0  1  8.565404  8.565548 22.842772
340   0  1  8.565409  8.565553 25.697947
346   0  1  8.565682 11.421216 14.276739
347   0  1  8.565636 11.421177 17.132175
348   0  1  8.565628 11.421166 19.987459
349   0  1  8.565639 11.421165 22.842692
350   0  1  8.565650 11.421166 25.697922
1919  0  1 27.125392  4.282123 24.271041
1918  0  1 27.125392  4.280937 21.417018
1917  0  1 27.125392  4.282446 18.560296
1916  0  1 27.125392  4.282888 15.704478
1910  0  1 27.125392  1.466674 27.125539
416   0  1 11.421064  2.855273 14.276747
417   0  1 11.421022  2.855263 17.132172
418   0  1 11.421040  2.855269 19.987432
419   0  1 11.421103  2.855304 22.842651
420   0  1 11.421138  2.855342 25.697904
426   0  1 11.421066  5.710525 14.276746
427   0  1 11.421022  5.710496 17.132183
428   0  1 11.421018  5.710487 19.987468
429   0  1 11.421040  5.710523 22.842686
430   0  1 11.421054  5.710555 25.697917
436   0  1 11.421072  8.565826 14.276739
437   0  1 11.421033  8.565780 17.132175
438   0  1 11.421022  8.565772 19.987459
439   0  1 11.421022  8.565783 22.842692
440   0  1 11.421023  8.565793 25.697922
446   0  1 11.421086 11.421229 14.276726
447   0  1 11.421072 11.421216 17.132129
448   0  1 11.421066 11.421209 19.987430
449   0  1 11.421064 11.421208 22.842682
450   0  1 11.421065 11.421208 25.697920
1909  0  1 27.125392  1.421176 24.276779
1908  0  1 27.125392  1.426914 21.415832
1907  0  1 27.125392  1.427594 18.559697
1906  0  1 27.125392  1.427698 15.704291
1850  0  1 24.270085 12.848976 27.125539
821   0  1 22.843183  5.709780 28.552936
517   0  1 14.276643  2.855263 17.132172
518   0  1 14.276625  2.855269 19.987432
519   0  1 14.276562  2.855304 22.842651
520   0  1 14.276526  2.855342 25.697904
731   0  1 19.987555  8.565503 28.553112
527   0  1 14.276642  5.710496 17.132183
528   0  1 14.276646  5.710487 19.987468
529   0  1 14.276625  5.710523 22.842686
530   0  1 14.276610  5.710555 25.697917
607   0  1 17.132255  0.000008 17.132402
537   0  1 14.276631  8.565780 17.132175
538   0  1 14.276642  8.565772 19.987459
539   0  1 14.276643  8.565783 22.842692
540   0  1 14.276642  8.565793 25.697922
510   0  1 14.276466  0.000067 25.697888
547   0  1 14.276592 11.421216 17.132129
548   0  1 14.276599 11.421209 19.987430
549   0  1 14.276600 11.421208 22.842682
550   0  1 14.276600 11.421208 25.697920
1849  0  1 24.270101 12.848976 24.270248
1848  0  1 24.270130 12.848976 21.414993
1847  0  1 24.270148 12.848976 18.559766
1846  0  1 24.270154 12.848976 15.704456
1840  0  1 24.270110  9.993664 27.125539
509   0  1 14.276526  0.000051 22.842613
617   0  1 17.132260  2.855183 17.132407
618   0  1 17.132342  2.855106 19.987741
619   0  1 17.132131  2.855135 22.842820
620   0  1 17.132009  2.855209 25.697955
508   0  1 14.276610  0.000037 19.987400
627   0  1 17.132257  5.710353 17.132403
628   0  1 17.132402  5.710176 19.987779
629   0  1 17.132342  5.710214 22.842849
630   0  1 17.132304  5.710253 25.697966
507   0  1 14.276642  0.000033 17.132162
637   0  1 17.132203  8.565605 17.132349
638   0  1 17.132257  8.565551 19.987602
639   0  1 17.132260  8.565548 22.842772
640   0  1 17.132255  8.565553 25.697947
410   0  1 11.421198  0.000067 25.697888
647   0  1 17.132028 11.421177 17.132175
648   0  1 17.132036 11.421166 19.987459
649   0  1 17.132025 11.421165 22.842692
650   0  1 17.132015 11.421166 25.697922
1839  0  1 24.270135  9.993614 24.270282
1838  0  1 24.270180  9.993451 21.415095
1837  0  1 24.270188  9.993338 18.559918
1836  0  1 24.270168  9.993409 15.704546
409   0  1 11.421138  0.000051 22.842613
717   0  1 19.987594  2.855106 17.132489
718   0  1 19.988390  2.854738 19.988537
719   0  1 19.988366  2.854375 22.843579
720   0  1 19.988028  2.854625 25.698143
408   0  1 11.421054  0.000037 19.987400
727   0  1 19.987632  5.710176 17.132549
728   0  1 19.988550  5.709258 19.988697
729   0  1 19.988390  5.709418 22.843217
730   0  1 19.988356  5.709452 25.698083
407   0  1 11.421023  0.000033 17.132162
737   0  1 19.987455  8.565551 17.132403
738   0  1 19.987632  8.565406 19.987779
739   0  1 19.987594  8.565466 22.842849
740   0  1 19.987555  8.565504 25.697966
406   0  1 11.421065  0.000034 14.276747
747   0  1 19.987312 11.421166 17.132183
748   0  1 19.987321 11.421162 19.987468
749   0  1 19.987285 11.421183 22.842686
750   0  1 19.987253 11.421198 25.697917
1830  0  1 24.270214  7.138258 27.125539
1829  0  1 24.270264  7.138138 24.270410
1828  0  1 24.270384  7.137605 21.415559
1827  0  1 24.270306  7.137590 18.560365
810   0  1 22.842534  0.001618 25.696337
310   0  1  8.565935  0.000051 25.697904
817   0  1 22.842673  2.855135 17.132278
818   0  1 22.843433  2.854375 19.988513
819   0  1 22.848912  2.848896 22.849059
820   0  1 22.846067  2.851741 25.698305
721   0  1 19.988356  5.709452 28.552996
827   0  1 22.842702  5.710214 17.132489
828   0  1 22.843070  5.709418 19.988537
829   0  1 22.843433  5.709442 22.843579
830   0  1 22.843183  5.709780 25.698143
711   0  1 19.988028  2.854625 28.552936
837   0  1 22.842625  8.565548 17.132407
838   0  1 22.842702  8.565466 19.987741
839   0  1 22.842673  8.565677 22.842820
840   0  1 22.842599  8.565799 25.697955
811   0  1 22.846067  2.851741 28.552774
847   0  1 22.842545 11.421165 17.132172
848   0  1 22.842539 11.421183 19.987432
849   0  1 22.842504 11.421246 22.842651
850   0  1 22.842466 11.421282 25.697904
1826  0  1 24.270188  7.138037 15.704617
1820  0  1 24.270894  4.282123 27.125539
908   0  1 25.697660  0.000148 19.987043
909   0  1 25.696190  0.001618 22.842680
1819  0  1 24.270949  4.281799 24.271096
307   0  1  8.565409  0.000008 17.132402
917   0  1 25.697808  2.855209 17.132156
918   0  1 25.697996  2.854625 19.988175
919   0  1 25.698158  2.851741 22.846214
920   0  1 25.696190  2.855274 25.696337
306   0  1  8.565650  0.000033 14.276788
927   0  1 25.697820  5.710253 17.132451
928   0  1 25.697936  5.709452 19.988503
929   0  1 25.697996  5.709780 22.843330
930   0  1 25.697660  5.710912 25.697807
321   0  1  8.565360  5.710253 28.553112
937   0  1 25.697800  8.565553 17.132402
938   0  1 25.697820  8.565503 19.987702
939   0  1 25.697808  8.565799 22.842746
940   0  1 25.697757  8.566079 25.697904
621   0  1 17.132305  5.710253 28.553112
947   0  1 25.697775 11.421166 17.132162
948   0  1 25.697771 11.421198 19.987400
949   0  1 25.697757 11.421282 22.842613
950   0  1 25.697741 11.421342 25.697888
1006  0  1  1.427529  1.427673 15.704341
1007  0  1  1.427401  1.427544 18.559817
1008  0  1  1.426715  1.426859 21.416156
1009  0  1  1.411778  1.411921 24.286033
1010  0  1  1.421032  1.421176 27.125539
1016  0  1  1.427485  4.282860 15.704504
1017  0  1  1.427280  4.282396 18.560350
1018  0  1  1.426876  4.280923 21.417031
1019  0  1  1.426715  4.281799 24.271096
1020  0  1  1.426771  4.282123 27.125539
1026  0  1  1.427477  7.138037 15.704617
1027  0  1  1.427359  7.137590 18.560365
1028  0  1  1.427280  7.137605 21.415559
1029  0  1  1.427401  7.138138 24.270410
1030  0  1  1.427450  7.138258 27.125539
1036  0  1  1.427497  9.993409 15.704546
1037  0  1  1.427477  9.993338 18.559918
1038  0  1  1.427485  9.993451 21.415095
1039  0  1  1.427529  9.993614 24.270282
1040  0  1  1.427554  9.993664 27.125539
1046  0  1  1.427511 12.848976 15.704456
1047  0  1  1.427516 12.848976 18.559766
1048  0  1  1.427535 12.848976 21.414993
1049  0  1  1.427564 12.848976 24.270248
1050  0  1  1.427580 12.848976 27.125539
1106  0  1  4.282717  1.427628 15.704504
1107  0  1  4.282253  1.427424 18.560350
1108  0  1  4.280780  1.427020 21.417031
1109  0  1  4.281656  1.426859 24.271096
1110  0  1  4.281980  1.426914 27.125539
1116  0  1  4.282663  4.282806 15.704575
1117  0  1  4.282130  4.282274 18.560530
1118  0  1  4.279973  4.280116 21.417839
1119  0  1  4.280780  4.280923 24.270935
1120  0  1  4.280793  4.280937 27.125539
1126  0  1  4.282665  7.138014 15.704630
1127  0  1  4.282409  7.137576 18.560379
1128  0  1  4.282130  7.137425 21.415681
1129  0  1  4.282253  7.137605 24.270531
1130  0  1  4.282303  7.137659 27.125539
1136  0  1  4.282719  9.993408 15.704546
1137  0  1  4.282665  9.993325 18.559941
1138  0  1  4.282663  9.993380 21.415149
1139  0  1  4.282717  9.993451 24.270327
1140  0  1  4.282745  9.993477 27.125539
1146  0  1  4.282752 12.848976 15.704461
1147  0  1  4.282750 12.848976 18.559793
1148  0  1  4.282776 12.848976 21.415035
1149  0  1  4.282819 12.848976 24.270277
1150  0  1  4.282839 12.848976 27.125539
1206  0  1  7.137893  1.427620 15.704617
1207  0  1  7.137447  1.427502 18.560365
1208  0  1  7.137461  1.427424 21.415559
1209  0  1  7.137994  1.427544 24.270410
1210  0  1  7.138114  1.427594 27.125539
1216  0  1  7.137871  4.282808 15.704630
1217  0  1  7.137432  4.282553 18.560379
1218  0  1  7.137282  4.282274 21.415681
1219  0  1  7.137461  4.282396 24.270531
1220  0  1  7.137515  4.282446 27.125539
1226  0  1  7.137868  7.138012 15.704633
1227  0  1  7.137456  7.137599 18.560355
1228  0  1  7.137432  7.137576 21.415402
1229  0  1  7.137446  7.137590 24.270452
1230  0  1  7.137456  7.137599 27.125539
1236  0  1  7.137965  9.993418 15.704537
1237  0  1  7.137868  9.993322 18.559943
1238  0  1  7.137871  9.993325 21.415147
1239  0  1  7.137893  9.993338 24.270335
1240  0  1  7.137904  9.993344 27.125539
1246  0  1  7.138018 12.848976 15.704461
1247  0  1  7.137999 12.848976 18.559812
1248  0  1  7.138018 12.848976 21.415061
1249  0  1  7.138045 12.848976 24.270295
1250  0  1  7.138057 12.848976 27.125539
1306  0  1  9.993265  1.427640 15.704546
1307  0  1  9.993195  1.427620 18.559918
1308  0  1  9.993307  1.427628 21.415095
1309  0  1  9.993470  1.427673 24.270282
1310  0  1  9.993521  1.427698 27.125539
1316  0  1  9.993265  4.282862 15.704546
1317  0  1  9.993181  4.282808 18.559941
1318  0  1  9.993237  4.282806 21.415149
1319  0  1  9.993307  4.282860 24.270327
1320  0  1  9.993334  4.282888 27.125539
1326  0  1  9.993275  7.138109 15.704537
1327  0  1  9.993179  7.138012 18.559943
1328  0  1  9.993181  7.138014 21.415147
1329  0  1  9.993195  7.138037 24.270335
1330  0  1  9.993200  7.138047 27.125539
1336  0  1  9.993312  9.993455 15.704500
1337  0  1  9.993275  9.993418 18.559846
1338  0  1  9.993265  9.993408 21.415093
1339  0  1  9.993265  9.993409 24.270315
1340  0  1  9.993266  9.993410 27.125539
1346  0  1  9.993362 12.848976 15.704449
1347  0  1  9.993350 12.848976 18.559793
1348  0  1  9.993351 12.848976 21.415059
1349  0  1  9.993356 12.848976 24.270300
1350  0  1  9.993358 12.848976 27.125539
1406  0  1 12.848832  1.427654 15.704456
1407  0  1 12.848832  1.427660 18.559766
1408  0  1 12.848832  1.427678 21.414993
1409  0  1 12.848832  1.427707 24.270248
1410  0  1 12.848832  1.427723 27.125539
1416  0  1 12.848832  4.282896 15.704461
1417  0  1 12.848832  4.282894 18.559793
1418  0  1 12.848832  4.282920 21.415035
1419  0  1 12.848832  4.282962 24.270277
1420  0  1 12.848832  4.282983 27.125539
1426  0  1 12.848832  7.138162 15.704461
1427  0  1 12.848832  7.138143 18.559812
1428  0  1 12.848832  7.138161 21.415061
1429  0  1 12.848832  7.138189 24.270295
1430  0  1 12.848832  7.138200 27.125539
1436  0  1 12.848832  9.993506 15.704449
1437  0  1 12.848832  9.993493 18.559793
1438  0  1 12.848832  9.993494 21.415059
1439  0  1 12.848832  9.993499 24.270300
1440  0  1 12.848832  9.993501 27.125539
1446  0  1 12.848832 12.848976 15.704429
1447  0  1 12.848832 12.848976 18.559777
1448  0  1 12.848832 12.848976 21.415053
1449  0  1 12.848832 12.848976 24.270300
1450  0  1 12.848832 12.848976 27.125539
1506  0  1 15.704399  1.427640 15.704546
1507  0  1 15.704470  1.427620 18.559918
1508  0  1 15.704357  1.427628 21.415095
1509  0  1 15.704194  1.427673 24.270282
1510  0  1 15.704144  1.427698 27.125539
1516  0  1 15.704400  4.282862 15.704546
1517  0  1 15.704483  4.282808 18.559941
1518  0  1 15.704428  4.282806 21.415149
1519  0  1 15.704357  4.282860 24.270327
1520  0  1 15.704331  4.282888 27.125539
1526  0  1 15.704390  7.138109 15.704537
1527  0  1 15.704486  7.138012 18.559943
1528  0  1 15.704483  7.138014 21.415147
1529  0  1 15.704470  7.138037 24.270335
1530  0  1 15.704464  7.138047 27.125539
1536  0  1 15.704353  9.993455 15.704500
1537  0  1 15.704390  9.993418 18.559846
1538  0  1 15.704400  9.993408 21.415093
1539  0  1 15.704399  9.993409 24.270315
1540  0  1 15.704398  9.993410 27.125539
1546  0  1 15.704302 12.848976 15.704449
1547  0  1 15.704315 12.848976 18.559793
1548  0  1 15.704314 12.848976 21.415059
1549  0  1 15.704309 12.848976 24.270300
1550  0  1 15.704307 12.848976 27.125539
1606  0  1 18.559771  1.427620 15.704617
1607  0  1 18.560218  1.427502 18.560365
1608  0  1 18.560203  1.427424 21.415559
1609  0  1 18.559670  1.427544 24.270410
1610  0  1 18.559550  1.427594 27.125539
1616  0  1 18.559794  4.282808 15.704630
1617  0  1 18.560232  4.282553 18.560379
1618  0  1 18.560383  4.282274 21.415681
1619  0  1 18.560203  4.282396 24.270531
1620  0  1 18.560149  4.282446 27.125539
1626  0  1 18.559796  7.138012 15.704633
1627  0  1 18.560209  7.137599 18.560355
1628  0  1 18.560232  7.137576 21.415402
1629  0  1 18.560218  7.137590 24.270452
1630  0  1 18.560209  7.137599 27.125539
1636  0  1 18.559699  9.993418 15.704537
1637  0  1 18.559796  9.993322 18.559943
1638  0  1 18.559794  9.993325 21.415147
1639  0  1 18.559771  9.993338 24.270335
1640  0  1 18.559761  9.993344 27.125539
1646  0  1 18.559646 12.848976 15.704461
1647  0  1 18.559665 12.848976 18.559812
1648  0  1 18.559647 12.848976 21.415061
1649  0  1 18.559619 12.848976 24.270295
1650  0  1 18.559608 12.848976 27.125539
1706  0  1 21.414948  1.427628 15.704504
1707  0  1 21.415412  1.427424 18.560350
1708  0  1 21.416885  1.427020 21.417031
1709  0  1 21.416009  1.426859 24.271096
1710  0  1 21.415685  1.426914 27.125539
1716  0  1 21.415002  4.282806 15.704575
1717  0  1 21.415534  4.282274 18.560530
1718  0  1 21.417692  4.280116 21.417839
1719  0  1 21.416885  4.280923 24.270935
1720  0  1 21.416871  4.280937 27.125539
1726  0  1 21.415000  7.138014 15.704630
1727  0  1 21.415255  7.137576 18.560379
1728  0  1 21.415534  7.137425 21.415681
1729  0  1 21.415412  7.137605 24.270531
1730  0  1 21.415362  7.137659 27.125539
1736  0  1 21.414946  9.993408 15.704546
1737  0  1 21.415000  9.993325 18.559941
1738  0  1 21.415002  9.993380 21.415149
1739  0  1 21.414948  9.993451 24.270327
1740  0  1 21.414920  9.993477 27.125539
1746  0  1 21.414912 12.848976 15.704461
1747  0  1 21.414914 12.848976 18.559793
1748  0  1 21.414888 12.848976 21.415035
1749  0  1 21.414846 12.848976 24.270277
1750  0  1 21.414825 12.848976 27.125539
1806  0  1 24.270135  1.427673 15.704341
1807  0  1 24.270264  1.427544 18.559817
1808  0  1 24.270949  1.426859 21.416156
1809  0  1 24.285887  1.411921 24.286033
1810  0  1 24.276632  1.421176 27.125539
1816  0  1 24.270180  4.282860 15.704504
1817  0  1 24.270384  4.282396 18.560350
1818  0  1 24.270788  4.280923 21.417031
907   0  1 25.697757  0.000051 17.131876
7     0  1 28.553028  0.000051 17.131876
221   0  1  5.709309  5.709452 28.552996
206   0  1  5.710412  0.000037 14.276757
211   0  1  5.709637  2.854625 28.552936
106   0  1  2.855199  0.000051 14.276673
111   0  1  2.851598  2.851741 28.552774
906   0  1 25.697741  0.000067 14.276613
706   0  1 19.987253  0.000037 14.276757
231   0  1  5.710109  8.565503 28.553112
121   0  1  2.854482  5.709780 28.552936
946   0  1 25.697774 11.421208 14.276747
936   0  1 25.697775  8.565793 14.276788
606   0  1 17.132015  0.000033 14.276788
926   0  1 25.697771  5.710555 14.276757
916   0  1 25.697757  2.855342 14.276673
846   0  1 22.842535 11.421208 14.276747
836   0  1 22.842545  8.565783 14.276790
826   0  1 22.842539  5.710523 14.276771
816   0  1 22.842504  2.855304 14.276709
746   0  1 19.987283 11.421209 14.276746
736   0  1 19.987312  8.565772 14.276789
726   0  1 19.987321  5.710487 14.276793
716   0  1 19.987285  2.855269 14.276771
26    0  1 28.553014  5.710555 14.276757
506   0  1 14.276600  0.000034 14.276747
646   0  1 17.131982 11.421216 14.276739
636   0  1 17.132028  8.565780 14.276778
626   0  1 17.132036  5.710496 14.276789
616   0  1 17.132025  2.855263 14.276790
546   0  1 14.276579 11.421229 14.276726
536   0  1 14.276592  8.565826 14.276739
526   0  1 14.276599  5.710525 14.276746
516   0  1 14.276600  2.855273 14.276747
806   0  1 22.842466  0.000051 14.276673
36    0  1 28.553009  8.565793 14.276788
561   0  1 14.276642 17.132158  0.000036
1995  0  1 27.125392 27.125536 12.848979
52    0  1 28.553028 14.276670  2.855346
491   0  1 11.421198 25.697884  0.000071
1873  0  1 24.270384 21.415555  7.137608
55    0  1 28.553011 14.276743 11.421212
571   0  1 14.276610 19.987396  0.000041
62    0  1 28.552976 17.132152  2.855212
63    0  1 28.552965 17.132448  5.710256
64    0  1 28.552985 17.132399  8.565556
65    0  1 28.553009 17.132158 11.421170
71    0  1  0.000005 19.987040  0.000152
72    0  1 28.552789 19.988171  2.854628
73    0  1 28.552849 19.988499  5.709456
74    0  1 28.552965 19.987699  8.565507
75    0  1 28.553014 19.987396 11.421201
81    0  1  0.001475 22.842677  0.001621
82    0  1 28.552627 22.846210  2.851745
83    0  1 28.552789 22.843326  5.709784
84    0  1 28.552976 22.842743  8.565803
85    0  1 28.553028 22.842609 11.421285
481   0  1 11.421138 22.842609  0.000054
92    0  1  0.001475 25.696333  2.855278
93    0  1  0.000005 25.697803  5.710915
94    0  1 28.553028 25.697900  8.566082
95    0  1 28.553044 25.697884 11.421345
471   0  1 11.421054 19.987396  0.000041
152   0  1  2.855161 14.276705  2.855308
153   0  1  2.855125 14.276768  5.710527
154   0  1  2.855119 14.276786  8.565786
155   0  1  2.855130 14.276744 11.421211
804   0  1 22.842599 28.553120  8.565803
162   0  1  2.854991 17.132274  2.855138
163   0  1  2.854963 17.132485  5.710218
164   0  1  2.855039 17.132404  8.565551
165   0  1  2.855119 17.132169 11.421169
803   0  1 22.843183 28.552932  5.709784
172   0  1  2.854232 19.988509  2.854379
173   0  1  2.854594 19.988534  5.709421
174   0  1  2.854963 19.987737  8.565470
175   0  1  2.855125 19.987428 11.421187
802   0  1 22.846067 28.552770  2.851745
182   0  1  2.848752 22.849056  2.848899
183   0  1  2.854232 22.843576  5.709446
184   0  1  2.854991 22.842817  8.565681
185   0  1  2.855161 22.842647 11.421250
191   0  1  2.855131 25.696333  0.001621
192   0  1  2.851598 25.698301  2.851745
193   0  1  2.854482 25.698139  5.709784
194   0  1  2.855065 25.697952  8.565803
195   0  1  2.855199 25.697900 11.421285
461   0  1 11.421023 17.132158  0.000036
252   0  1  5.710380 14.276768  2.855272
253   0  1  5.710344 14.276790  5.710491
254   0  1  5.710352 14.276786  8.565775
255   0  1  5.710381 14.276742 11.421213
704   0  1 19.987555 28.553108  8.565507
262   0  1  5.710071 17.132485  2.855110
263   0  1  5.710033 17.132546  5.710180
264   0  1  5.710210 17.132400  8.565555
265   0  1  5.710352 17.132180 11.421169
703   0  1 19.988356 28.552992  5.709456
272   0  1  5.709274 19.988534  2.854741
273   0  1  5.709114 19.988694  5.709261
274   0  1  5.710033 19.987775  8.565409
275   0  1  5.710344 19.987464 11.421165
702   0  1 19.988028 28.552932  2.854628
282   0  1  5.709299 22.843576  2.854379
283   0  1  5.709274 22.843214  5.709421
284   0  1  5.710071 22.842845  8.565470
285   0  1  5.710380 22.842683 11.421187
291   0  1  5.710768 25.697803  0.000152
292   0  1  5.709637 25.698139  2.854628
293   0  1  5.709309 25.698079  5.709456
294   0  1  5.710109 25.697963  8.565507
295   0  1  5.710412 25.697914 11.421201
451   0  1 11.421065 14.276743  0.000038
352   0  1  8.565639 14.276786  2.855266
353   0  1  8.565628 14.276786  5.710499
354   0  1  8.565636 14.276775  8.565783
355   0  1  8.565682 14.276736 11.421219
581   0  1 14.276526 22.842609  0.000055
362   0  1  8.565404 17.132404  2.855186
363   0  1  8.565408 17.132400  5.710356
364   0  1  8.565462 17.132346  8.565609
365   0  1  8.565636 17.132172 11.421180
603   0  1 17.132305 28.553108  5.710256
372   0  1  8.565323 19.987737  2.855110
373   0  1  8.565262 19.987775  5.710180
374   0  1  8.565408 19.987598  8.565555
375   0  1  8.565628 19.987456 11.421169
602   0  1 17.132009 28.553120  2.855212
382   0  1  8.565534 22.842817  2.855138
383   0  1  8.565323 22.842845  5.710218
384   0  1  8.565404 22.842769  8.565551
385   0  1  8.565639 22.842689 11.421169
391   0  1  8.565935 25.697900  0.000055
392   0  1  8.565656 25.697952  2.855212
393   0  1  8.565360 25.697963  5.710256
394   0  1  8.565409 25.697943  8.565556
395   0  1  8.565650 25.697919 11.421170
381   0  1  8.565656 22.842743  0.000003
452   0  1 11.421064 14.276744  2.855277
453   0  1 11.421066 14.276742  5.710528
454   0  1 11.421072 14.276736  8.565829
455   0  1 11.421086 14.276722 11.421232
953   0  1 25.697771 14.276754  5.710559
462   0  1 11.421022 17.132169  2.855266
463   0  1 11.421022 17.132180  5.710499
464   0  1 11.421033 17.132172  8.565783
465   0  1 11.421072 17.132126 11.421219
361   0  1  8.565409 17.132399  0.000012
472   0  1 11.421040 19.987428  2.855272
473   0  1 11.421018 19.987464  5.710491
474   0  1 11.421022 19.987456  8.565775
475   0  1 11.421066 19.987427 11.421213
1984  0  1 27.125392 24.270254  9.993668
482   0  1 11.421103 22.842647  2.855308
483   0  1 11.421040 22.842683  5.710527
484   0  1 11.421022 22.842689  8.565786
485   0  1 11.421064 22.842678 11.421211
351   0  1  8.565650 14.276785  0.000036
492   0  1 11.421138 25.697900  2.855346
493   0  1 11.421054 25.697914  5.710559
494   0  1 11.421023 25.697919  8.565797
495   0  1 11.421065 25.697917 11.421212
591   0  1 14.276466 25.697884  0.000071
1983  0  1 27.125392 24.270358  7.138261
1982  0  1 27.125392 24.271037  4.282127
1981  0  1 27.125392 24.276776  1.421179
1975  0  1 27.125392 21.414969 12.848979
1974  0  1 27.125392 21.415063  9.993480
562   0  1 14.276643 17.132169  2.855266
563   0  1 14.276642 17.132180  5.710499
564   0  1 14.276631 17.132172  8.565783
565   0  1 14.276592 17.132126 11.421219
1973  0  1 27.125392 21.415505  7.137662
572   0  1 14.276625 19.987428  2.855272
573   0  1 14.276646 19.987464  5.710491
574   0  1 14.276642 19.987456  8.565775
575   0  1 14.276599 19.987427 11.421213
1972  0  1 27.125392 21.417015  4.280940
582   0  1 14.276562 22.842647  2.855308
583   0  1 14.276625 22.842683  5.710527
584   0  1 14.276643 22.842689  8.565786
585   0  1 14.276600 22.842678 11.421211
303   0  1  8.565360 28.553108  5.710256
592   0  1 14.276526 25.697900  2.855346
593   0  1 14.276610 25.697914  5.710559
594   0  1 14.276642 25.697919  8.565797
595   0  1 14.276600 25.697917 11.421212
1971  0  1 27.125392 21.415828  1.426917
1965  0  1 27.125392 18.559751 12.848979
1964  0  1 27.125392 18.559904  9.993347
1963  0  1 27.125392 18.560352  7.137603
1962  0  1 27.125392 18.560293  4.282450
1961  0  1 27.125392 18.559694  1.427597
662   0  1 17.132260 17.132404  2.855186
663   0  1 17.132257 17.132400  5.710356
664   0  1 17.132203 17.132346  8.565609
665   0  1 17.132028 17.132172 11.421180
1955  0  1 27.125392 15.704450 12.848979
672   0  1 17.132342 19.987737  2.855110
673   0  1 17.132402 19.987775  5.710180
674   0  1 17.132257 19.987598  8.565555
675   0  1 17.132036 19.987456 11.421169
203   0  1  5.709309 28.552992  5.709456
682   0  1 17.132131 22.842817  2.855138
683   0  1 17.132342 22.842845  5.710218
684   0  1 17.132260 22.842769  8.565551
685   0  1 17.132025 22.842689 11.421169
202   0  1  5.709637 28.552932  2.854628
692   0  1 17.132009 25.697952  2.855212
693   0  1 17.132304 25.697963  5.710256
694   0  1 17.132255 25.697943  8.565556
695   0  1 17.132015 25.697919 11.421170
1954  0  1 27.125392 15.704542  9.993413
1953  0  1 27.125392 15.704608  7.138051
1952  0  1 27.125392 15.704474  4.282892
1951  0  1 27.125392 15.704287  1.427701
1895  0  1 24.270085 27.125536 12.848979
1894  0  1 24.270110 27.125536  9.993668
762   0  1 19.987594 17.132485  2.855110
763   0  1 19.987632 17.132546  5.710180
764   0  1 19.987455 17.132400  8.565555
765   0  1 19.987312 17.132180 11.421169
1893  0  1 24.270214 27.125536  7.138261
772   0  1 19.988390 19.988534  2.854741
773   0  1 19.988550 19.988694  5.709261
774   0  1 19.987632 19.987775  8.565409
775   0  1 19.987321 19.987464 11.421165
102   0  1  2.851598 28.552770  2.851745
782   0  1 19.988366 22.843576  2.854379
783   0  1 19.988390 22.843214  5.709421
784   0  1 19.987594 22.842845  8.565470
785   0  1 19.987285 22.842683 11.421187
792   0  1 19.988028 25.698139  2.854628
793   0  1 19.988356 25.698079  5.709456
794   0  1 19.987555 25.697963  8.565507
795   0  1 19.987253 25.697914 11.421201
1892  0  1 24.270894 27.125536  4.282127
1891  0  1 24.276632 27.125536  1.421179
1885  0  1 24.270101 24.270244 12.848979
1884  0  1 24.270135 24.270279  9.993617
1883  0  1 24.270264 24.270407  7.138141
661   0  1 17.132255 17.132399  0.000012
862   0  1 22.842673 17.132274  2.855138
863   0  1 22.842702 17.132485  5.710218
864   0  1 22.842625 17.132404  8.565551
865   0  1 22.842545 17.132169 11.421169
1993  0  1 27.125392 27.125536  7.138665
872   0  1 22.843433 19.988509  2.854379
873   0  1 22.843070 19.988534  5.709421
874   0  1 22.842702 19.987737  8.565470
875   0  1 22.842539 19.987428 11.421187
1992  0  1 27.125392 27.125536  4.285464
882   0  1 22.848912 22.849056  2.848899
883   0  1 22.843433 22.843576  5.709446
884   0  1 22.842673 22.842817  8.565681
885   0  1 22.842504 22.842647 11.421250
891   0  1 22.842534 25.696333  0.001621
892   0  1 22.846067 25.698301  2.851745
893   0  1 22.843183 25.698139  5.709784
894   0  1 22.842599 25.697952  8.565803
895   0  1 22.842466 25.697900 11.421285
1994  0  1 27.125392 27.125536  9.993752
1882  0  1 24.270949 24.271093  4.281803
1881  0  1 24.285887 24.286030  1.411925
1875  0  1 24.270130 21.414989 12.848979
1874  0  1 24.270180 21.415091  9.993454
1991  0  1 27.125392 27.125536  1.466678
962   0  1 25.697808 17.132152  2.855212
963   0  1 25.697820 17.132448  5.710256
964   0  1 25.697800 17.132399  8.565556
965   0  1 25.697775 17.132158 11.421170
971   0  1 25.697660 19.987040  0.000152
972   0  1 25.697996 19.988171  2.854628
973   0  1 25.697936 19.988499  5.709456
974   0  1 25.697820 19.987699  8.565507
975   0  1 25.697771 19.987396 11.421201
981   0  1 25.696190 22.842677  0.001621
982   0  1 25.698158 22.846210  2.851745
983   0  1 25.697996 22.843326  5.709784
984   0  1 25.697808 22.842743  8.565803
985   0  1 25.697757 22.842609 11.421285
1985  0  1 27.125392 24.270228 12.848979
992   0  1 25.696190 25.696333  2.855278
993   0  1 25.697660 25.697803  5.710915
994   0  1 25.697757 25.697900  8.566082
995   0  1 25.697741 25.697884 11.421345
1051  0  1  1.427529 15.704338  1.427676
1052  0  1  1.427485 15.704501  4.282864
1053  0  1  1.427477 15.704613  7.138040
1054  0  1  1.427497 15.704543  9.993412
1055  0  1  1.427511 15.704452 12.848979
1061  0  1  1.427401 18.559814  1.427548
1062  0  1  1.427280 18.560347  4.282400
1063  0  1  1.427359 18.560362  7.137593
1064  0  1  1.427477 18.559915  9.993341
1065  0  1  1.427516 18.559763 12.848979
1071  0  1  1.426715 21.416152  1.426862
1072  0  1  1.426876 21.417028  4.280927
1073  0  1  1.427280 21.415555  7.137608
1074  0  1  1.427485 21.415091  9.993454
1075  0  1  1.427535 21.414989 12.848979
1081  0  1  1.411778 24.286030  1.411925
1082  0  1  1.426715 24.271093  4.281803
1083  0  1  1.427401 24.270407  7.138141
1084  0  1  1.427529 24.270279  9.993617
1085  0  1  1.427564 24.270244 12.848979
1091  0  1  1.421032 27.125536  1.421179
1092  0  1  1.426771 27.125536  4.282127
1093  0  1  1.427450 27.125536  7.138261
1094  0  1  1.427554 27.125536  9.993668
1095  0  1  1.427580 27.125536 12.848979
1151  0  1  4.282717 15.704501  1.427631
1152  0  1  4.282663 15.704571  4.282810
1153  0  1  4.282665 15.704627  7.138017
1154  0  1  4.282719 15.704543  9.993412
1155  0  1  4.282752 15.704457 12.848979
1161  0  1  4.282253 18.560347  1.427427
1162  0  1  4.282130 18.560526  4.282277
1163  0  1  4.282409 18.560376  7.137579
1164  0  1  4.282665 18.559937  9.993328
1165  0  1  4.282750 18.559790 12.848979
1171  0  1  4.280780 21.417028  1.427023
1172  0  1  4.279973 21.417835  4.280120
1173  0  1  4.282130 21.415678  7.137429
1174  0  1  4.282663 21.415145  9.993384
1175  0  1  4.282776 21.415032 12.848979
1181  0  1  4.281656 24.271093  1.426862
1182  0  1  4.280780 24.270932  4.280927
1183  0  1  4.282253 24.270528  7.137608
1184  0  1  4.282717 24.270323  9.993454
1185  0  1  4.282819 24.270273 12.848979
1191  0  1  4.281980 27.125536  1.426917
1192  0  1  4.280793 27.125536  4.280940
1193  0  1  4.282303 27.125536  7.137662
1194  0  1  4.282745 27.125536  9.993480
1195  0  1  4.282839 27.125536 12.848979
1251  0  1  7.137893 15.704613  1.427624
1252  0  1  7.137871 15.704627  4.282812
1253  0  1  7.137868 15.704629  7.138015
1254  0  1  7.137965 15.704533  9.993422
1255  0  1  7.138018 15.704458 12.848979
1261  0  1  7.137447 18.560361  1.427506
1262  0  1  7.137432 18.560376  4.282556
1263  0  1  7.137456 18.560352  7.137603
1264  0  1  7.137868 18.559940  9.993326
1265  0  1  7.137999 18.559809 12.848979
1271  0  1  7.137461 21.415555  1.427427
1272  0  1  7.137282 21.415678  4.282277
1273  0  1  7.137432 21.415399  7.137579
1274  0  1  7.137871 21.415143  9.993328
1275  0  1  7.138018 21.415058 12.848979
1281  0  1  7.137994 24.270407  1.427548
1282  0  1  7.137461 24.270528  4.282400
1283  0  1  7.137446 24.270449  7.137593
1284  0  1  7.137893 24.270331  9.993341
1285  0  1  7.138045 24.270292 12.848979
1291  0  1  7.138114 27.125536  1.427597
1292  0  1  7.137515 27.125536  4.282450
1293  0  1  7.137456 27.125536  7.137603
1294  0  1  7.137904 27.125536  9.993347
1295  0  1  7.138057 27.125536 12.848979
1351  0  1  9.993265 15.704543  1.427643
1352  0  1  9.993265 15.704543  4.282866
1353  0  1  9.993275 15.704533  7.138112
1354  0  1  9.993312 15.704496  9.993458
1355  0  1  9.993362 15.704446 12.848979
1361  0  1  9.993195 18.559915  1.427624
1362  0  1  9.993181 18.559937  4.282812
1363  0  1  9.993179 18.559940  7.138015
1364  0  1  9.993275 18.559843  9.993422
1365  0  1  9.993350 18.559790 12.848979
1371  0  1  9.993307 21.415091  1.427631
1372  0  1  9.993237 21.415145  4.282810
1373  0  1  9.993181 21.415143  7.138017
1374  0  1  9.993265 21.415089  9.993412
1375  0  1  9.993351 21.415056 12.848979
1381  0  1  9.993470 24.270279  1.427676
1382  0  1  9.993307 24.270323  4.282864
1383  0  1  9.993195 24.270331  7.138040
1384  0  1  9.993265 24.270311  9.993412
1385  0  1  9.993356 24.270297 12.848979
1391  0  1  9.993521 27.125536  1.427701
1392  0  1  9.993334 27.125536  4.282892
1393  0  1  9.993200 27.125536  7.138051
1394  0  1  9.993266 27.125536  9.993413
1395  0  1  9.993358 27.125536 12.848979
1451  0  1 12.848832 15.704452  1.427658
1452  0  1 12.848832 15.704457  4.282899
1453  0  1 12.848832 15.704458  7.138165
1454  0  1 12.848832 15.704446  9.993509
1455  0  1 12.848832 15.704425 12.848979
1461  0  1 12.848832 18.559763  1.427663
1462  0  1 12.848832 18.559790  4.282897
1463  0  1 12.848832 18.559809  7.138146
1464  0  1 12.848832 18.559790  9.993497
1465  0  1 12.848832 18.559774 12.848979
1471  0  1 12.848832 21.414989  1.427682
1472  0  1 12.848832 21.415032  4.282923
1473  0  1 12.848832 21.415058  7.138165
1474  0  1 12.848832 21.415056  9.993498
1475  0  1 12.848832 21.415050 12.848979
1481  0  1 12.848832 24.270244  1.427711
1482  0  1 12.848832 24.270273  4.282966
1483  0  1 12.848832 24.270292  7.138192
1484  0  1 12.848832 24.270297  9.993503
1485  0  1 12.848832 24.270296 12.848979
1491  0  1 12.848832 27.125536  1.427726
1492  0  1 12.848832 27.125536  4.282986
1493  0  1 12.848832 27.125536  7.138204
1494  0  1 12.848832 27.125536  9.993505
1495  0  1 12.848832 27.125536 12.848979
1551  0  1 15.704399 15.704543  1.427643
1552  0  1 15.704400 15.704543  4.282866
1553  0  1 15.704390 15.704533  7.138112
1554  0  1 15.704353 15.704496  9.993458
1555  0  1 15.704302 15.704446 12.848979
1561  0  1 15.704470 18.559915  1.427624
1562  0  1 15.704483 18.559937  4.282812
1563  0  1 15.704486 18.559940  7.138015
1564  0  1 15.704390 18.559843  9.993422
1565  0  1 15.704315 18.559790 12.848979
1571  0  1 15.704357 21.415091  1.427631
1572  0  1 15.704428 21.415145  4.282810
1573  0  1 15.704483 21.415143  7.138017
1574  0  1 15.704400 21.415089  9.993412
1575  0  1 15.704314 21.415056 12.848979
1581  0  1 15.704194 24.270279  1.427676
1582  0  1 15.704357 24.270323  4.282864
1583  0  1 15.704470 24.270331  7.138040
1584  0  1 15.704399 24.270311  9.993412
1585  0  1 15.704309 24.270297 12.848979
1591  0  1 15.704144 27.125536  1.427701
1592  0  1 15.704331 27.125536  4.282892
1593  0  1 15.704464 27.125536  7.138051
1594  0  1 15.704398 27.125536  9.993413
1595  0  1 15.704307 27.125536 12.848979
1651  0  1 18.559771 15.704613  1.427624
1652  0  1 18.559794 15.704627  4.282812
1653  0  1 18.559796 15.704629  7.138015
1654  0  1 18.559699 15.704533  9.993422
1655  0  1 18.559646 15.704458 12.848979
1661  0  1 18.560218 18.560362  1.427506
1662  0  1 18.560232 18.560376  4.282556
1663  0  1 18.560209 18.560352  7.137603
1664  0  1 18.559796 18.559940  9.993326
1665  0  1 18.559665 18.559809 12.848979
1671  0  1 18.560203 21.415555  1.427427
1672  0  1 18.560383 21.415678  4.282277
1673  0  1 18.560232 21.415399  7.137579
1674  0  1 18.559794 21.415143  9.993328
1675  0  1 18.559647 21.415058 12.848979
1681  0  1 18.559670 24.270407  1.427548
1682  0  1 18.560203 24.270528  4.282400
1683  0  1 18.560218 24.270449  7.137593
1684  0  1 18.559771 24.270331  9.993341
1685  0  1 18.559619 24.270292 12.848979
1691  0  1 18.559550 27.125536  1.427597
1692  0  1 18.560149 27.125536  4.282450
1693  0  1 18.560209 27.125536  7.137603
1694  0  1 18.559761 27.125536  9.993347
1695  0  1 18.559608 27.125536 12.848979
1751  0  1 21.414948 15.704501  1.427631
1752  0  1 21.415002 15.704571  4.282810
1753  0  1 21.415000 15.704627  7.138017
1754  0  1 21.414946 15.704543  9.993412
1755  0  1 21.414912 15.704457 12.848979
1761  0  1 21.415412 18.560347  1.427427
1762  0  1 21.415534 18.560526  4.282277
1763  0  1 21.415255 18.560376  7.137579
1764  0  1 21.415000 18.559937  9.993328
1765  0  1 21.414914 18.559790 12.848979
1771  0  1 21.416885 21.417028  1.427023
1772  0  1 21.417692 21.417835  4.280120
1773  0  1 21.415534 21.415678  7.137429
1774  0  1 21.415002 21.415145  9.993384
1775  0  1 21.414888 21.415032 12.848979
1781  0  1 21.416009 24.271093  1.426862
1782  0  1 21.416885 24.270932  4.280927
1783  0  1 21.415412 24.270528  7.137608
1784  0  1 21.414948 24.270323  9.993454
1785  0  1 21.414846 24.270273 12.848979
1791  0  1 21.415685 27.125536  1.426917
1792  0  1 21.416871 27.125536  4.280940
1793  0  1 21.415362 27.125536  7.137662
1794  0  1 21.414920 27.125536  9.993480
1795  0  1 21.414825 27.125536 12.848979
1851  0  1 24.270135 15.704338  1.427676
1852  0  1 24.270180 15.704501  4.282864
1853  0  1 24.270188 15.704613  7.138040
1854  0  1 24.270168 15.704543  9.993412
1855  0  1 24.270154 15.704452 12.848979
1861  0  1 24.270264 18.559814  1.427548
1862  0  1 24.270384 18.560347  4.282400
1863  0  1 24.270306 18.560362  7.137593
1864  0  1 24.270188 18.559915  9.993341
1865  0  1 24.270148 18.559763 12.848979
1871  0  1 24.270949 21.416152  1.426862
1872  0  1 24.270788 21.417028  4.280927
952   0  1 25.697757 14.276670  2.855346
51    0  1 28.553044 14.276610  0.000071
961   0  1 25.697757 17.131873  0.000055
551   0  1 14.276600 14.276743  0.000038
251   0  1  5.710412 14.276754  0.000041
855   0  1 22.842535 14.276744 11.421211
854   0  1 22.842545 14.276786  8.565786
161   0  1  2.855065 17.132152  0.000003
861   0  1 22.842599 17.132152  0.000003
151   0  1  2.855199 14.276670  0.000054
853   0  1 22.842539 14.276768  5.710527
61    0  1 28.553028 17.131873  0.000055
691   0  1 17.131729 25.697900  0.000055
852   0  1 22.842504 14.276705  2.855308
681   0  1 17.132009 22.842743  0.000003
103   0  1  2.854482 28.552932  5.709784
104   0  1  2.855065 28.553120  8.565803
955   0  1 25.697774 14.276743 11.421212
53    0  1 28.553014 14.276754  5.710559
954   0  1 25.697775 14.276785  8.565797
54    0  1 28.553009 14.276785  8.565797
552   0  1 14.276600 14.276744  2.855277
553   0  1 14.276599 14.276742  5.710528
554   0  1 14.276592 14.276736  8.565829
555   0  1 14.276579 14.276722 11.421232
302   0  1  8.565656 28.553120  2.855212
652   0  1 17.132025 14.276786  2.855266
851   0  1 22.842466 14.276670  0.000054
653   0  1 17.132036 14.276786  5.710499
654   0  1 17.132028 14.276775  8.565783
951   0  1 25.697741 14.276610  0.000071
655   0  1 17.131982 14.276736 11.421219
204   0  1  5.710109 28.553108  8.565507
752   0  1 19.987285 14.276768  2.855272
753   0  1 19.987321 14.276790  5.710491
754   0  1 19.987312 14.276786  8.565775
755   0  1 19.987283 14.276742 11.421213
791   0  1 19.986896 25.697803  0.000152
651   0  1 17.132015 14.276785  0.000036
751   0  1 19.987253 14.276754  0.000041
96    0  1 28.553044 25.697884 14.276613
660   0  1 17.132015 14.276785 25.697922
56    0  1 28.553011 14.276743 14.276747
57    0  1 28.553009 14.276785 17.132162
58    0  1 28.553014 14.276754 19.987400
59    0  1 28.553028 14.276670 22.842613
1999  0  1 27.125392 27.125536 24.231281
66    0  1 28.553009 17.132158 14.276788
67    0  1 28.552985 17.132399 17.132402
68    0  1 28.552965 17.132448 19.987702
69    0  1 28.552976 17.132152 22.842746
70    0  1 28.553028 17.131873 25.697904
76    0  1 28.553014 19.987396 14.276757
77    0  1 28.552965 19.987699 17.132451
78    0  1 28.552849 19.988499 19.988503
79    0  1 28.552789 19.988171 22.843330
80    0  1  0.000005 19.987040 25.697807
86    0  1 28.553028 22.842609 14.276673
87    0  1 28.552976 22.842743 17.132156
88    0  1 28.552789 22.843326 19.988175
89    0  1 28.552627 22.846210 22.846214
90    0  1  0.001474 22.842677 25.696337
910   0  1 25.738876 28.512052 25.739023
97    0  1 28.553028 25.697900 17.131876
98    0  1  0.000005 25.697803 19.987043
99    0  1  0.001474 25.696334 22.842680
100   0  1 28.511909 25.739019 25.739023
156   0  1  2.855130 14.276744 14.276747
157   0  1  2.855119 14.276786 17.132172
158   0  1  2.855125 14.276768 19.987432
159   0  1  2.855161 14.276705 22.842651
160   0  1  2.855199 14.276670 25.697904
166   0  1  2.855119 17.132169 14.276790
167   0  1  2.855039 17.132404 17.132407
168   0  1  2.854963 17.132485 19.987741
169   0  1  2.854991 17.132274 22.842820
170   0  1  2.855065 17.132152 25.697955
176   0  1  2.855125 19.987428 14.276771
177   0  1  2.854963 19.987737 17.132489
178   0  1  2.854594 19.988534 19.988537
179   0  1  2.854232 19.988509 22.843579
180   0  1  2.854482 19.988171 25.698143
186   0  1  2.855161 22.842647 14.276709
187   0  1  2.854991 22.842817 17.132278
188   0  1  2.854232 22.843576 19.988513
189   0  1  2.848752 22.849056 22.849059
190   0  1  2.851598 22.846210 25.698305
196   0  1  2.855199 25.697900 14.276673
197   0  1  2.855065 25.697952 17.132156
198   0  1  2.854482 25.698139 19.988175
199   0  1  2.851598 25.698301 22.846214
200   0  1  2.855131 25.696334 25.696337
256   0  1  5.710381 14.276742 14.276746
257   0  1  5.710352 14.276786 17.132183
258   0  1  5.710344 14.276790 19.987468
259   0  1  5.710380 14.276768 22.842686
260   0  1  5.710412 14.276754 25.697917
266   0  1  5.710352 17.132180 14.276789
267   0  1  5.710210 17.132400 17.132403
268   0  1  5.710033 17.132546 19.987779
269   0  1  5.710071 17.132485 22.842849
270   0  1  5.710109 17.132448 25.697966
276   0  1  5.710344 19.987464 14.276793
277   0  1  5.710033 19.987775 17.132549
278   0  1  5.709114 19.988694 19.988697
279   0  1  5.709274 19.988534 22.843217
280   0  1  5.709309 19.988499 25.698083
286   0  1  5.710380 22.842683 14.276771
287   0  1  5.710071 22.842845 17.132489
288   0  1  5.709274 22.843214 19.988537
289   0  1  5.709299 22.843576 22.843579
290   0  1  5.709637 22.843326 25.698143
296   0  1  5.710412 25.697914 14.276757
297   0  1  5.710109 25.697963 17.132451
298   0  1  5.709309 25.698079 19.988503
299   0  1  5.709637 25.698139 22.843330
300   0  1  5.710768 25.697803 25.697807
356   0  1  8.565682 14.276736 14.276739
357   0  1  8.565636 14.276775 17.132175
358   0  1  8.565628 14.276786 19.987459
359   0  1  8.565639 14.276786 22.842692
360   0  1  8.565650 14.276785 25.697922
366   0  1  8.565636 17.132172 14.276778
367   0  1  8.565462 17.132346 17.132349
368   0  1  8.565408 17.132400 19.987602
369   0  1  8.565404 17.132404 22.842772
370   0  1  8.565409 17.132399 25.697947
376   0  1  8.565628 19.987456 14.276789
377   0  1  8.565408 19.987598 17.132403
378   0  1  8.565262 19.987775 19.987779
379   0  1  8.565323 19.987737 22.842849
380   0  1  8.565360 19.987699 25.697966
386   0  1  8.565639 22.842689 14.276790
387   0  1  8.565404 22.842769 17.132407
388   0  1  8.565323 22.842845 19.987741
389   0  1  8.565534 22.842817 22.842820
390   0  1  8.565656 22.842743 25.697955
396   0  1  8.565650 25.697919 14.276788
397   0  1  8.565409 25.697943 17.132402
398   0  1  8.565360 25.697963 19.987702
399   0  1  8.565656 25.697952 22.842746
400   0  1  8.565935 25.697900 25.697904
456   0  1 11.421086 14.276722 14.276726
457   0  1 11.421072 14.276736 17.132129
458   0  1 11.421066 14.276742 19.987430
459   0  1 11.421064 14.276744 22.842682
460   0  1 11.421065 14.276743 25.697920
466   0  1 11.421072 17.132126 14.276739
467   0  1 11.421033 17.132172 17.132175
468   0  1 11.421022 17.132180 19.987459
469   0  1 11.421022 17.132169 22.842692
470   0  1 11.421023 17.132158 25.697922
476   0  1 11.421066 19.987427 14.276746
477   0  1 11.421022 19.987456 17.132183
478   0  1 11.421018 19.987464 19.987468
479   0  1 11.421040 19.987428 22.842686
480   0  1 11.421054 19.987396 25.697917
486   0  1 11.421064 22.842678 14.276747
487   0  1 11.421022 22.842689 17.132172
488   0  1 11.421040 22.842683 19.987432
489   0  1 11.421103 22.842647 22.842651
490   0  1 11.421138 22.842609 25.697904
496   0  1 11.421065 25.697917 14.276747
497   0  1 11.421023 25.697919 17.132162
498   0  1 11.421054 25.697914 19.987400
499   0  1 11.421138 25.697900 22.842613
500   0  1 11.421198 25.697884 25.697888
556   0  1 14.276579 14.276722 14.276726
557   0  1 14.276592 14.276736 17.132129
558   0  1 14.276599 14.276742 19.987430
559   0  1 14.276600 14.276744 22.842682
560   0  1 14.276600 14.276743 25.697920
566   0  1 14.276592 17.132126 14.276739
567   0  1 14.276631 17.132172 17.132175
568   0  1 14.276642 17.132180 19.987459
569   0  1 14.276643 17.132169 22.842692
570   0  1 14.276642 17.132158 25.697922
576   0  1 14.276599 19.987427 14.276746
577   0  1 14.276642 19.987456 17.132183
578   0  1 14.276646 19.987464 19.987468
579   0  1 14.276625 19.987428 22.842686
580   0  1 14.276610 19.987396 25.697917
586   0  1 14.276600 22.842678 14.276747
587   0  1 14.276643 22.842689 17.132172
588   0  1 14.276625 22.842683 19.987432
589   0  1 14.276562 22.842647 22.842651
590   0  1 14.276526 22.842609 25.697904
596   0  1 14.276600 25.697917 14.276747
597   0  1 14.276642 25.697919 17.132162
598   0  1 14.276610 25.697914 19.987400
599   0  1 14.276526 25.697900 22.842613
600   0  1 14.276466 25.697884 25.697888
656   0  1 17.131982 14.276736 14.276739
657   0  1 17.132028 14.276775 17.132175
658   0  1 17.132036 14.276786 19.987459
659   0  1 17.132025 14.276786 22.842692
991   0  1 25.738876 25.739019 28.512056
666   0  1 17.132028 17.132172 14.276778
667   0  1 17.132203 17.132346 17.132349
668   0  1 17.132257 17.132400 19.987602
669   0  1 17.132260 17.132404 22.842772
670   0  1 17.132255 17.132399 25.697947
676   0  1 17.132036 19.987456 14.276789
677   0  1 17.132257 19.987598 17.132403
678   0  1 17.132402 19.987775 19.987779
679   0  1 17.132342 19.987737 22.842849
680   0  1 17.132305 19.987699 25.697966
686   0  1 17.132025 22.842689 14.276790
687   0  1 17.132260 22.842769 17.132407
688   0  1 17.132342 22.842845 19.987741
689   0  1 17.132131 22.842817 22.842820
690   0  1 17.132009 22.842743 25.697955
960   0  1 25.697741 14.276610 25.697888
697   0  1 17.132255 25.697943 17.132402
698   0  1 17.132305 25.697963 19.987702
699   0  1 17.132009 25.697952 22.842746
700   0  1 17.131729 25.697900 25.697904
756   0  1 19.987283 14.276742 14.276746
757   0  1 19.987312 14.276786 17.132183
758   0  1 19.987321 14.276790 19.987468
759   0  1 19.987285 14.276768 22.842686
60    0  1 28.553044 14.276610 25.697888
766   0  1 19.987312 17.132180 14.276789
767   0  1 19.987455 17.132400 17.132403
768   0  1 19.987632 17.132546 19.987779
769   0  1 19.987594 17.132485 22.842849
770   0  1 19.987555 17.132448 25.697966
776   0  1 19.987321 19.987464 14.276793
777   0  1 19.987632 19.987775 17.132549
778   0  1 19.988550 19.988694 19.988697
779   0  1 19.988390 19.988534 22.843217
780   0  1 19.988356 19.988499 25.698083
786   0  1 19.987285 22.842683 14.276771
787   0  1 19.987594 22.842845 17.132489
788   0  1 19.988390 22.843214 19.988537
789   0  1 19.988366 22.843576 22.843579
790   0  1 19.988028 22.843326 25.698143
901   0  1 25.738876 28.512052 28.512056
797   0  1 19.987555 25.697963 17.132451
798   0  1 19.988356 25.698079 19.988503
799   0  1 19.988028 25.698139 22.843330
800   0  1 19.986896 25.697803 25.697807
856   0  1 22.842535 14.276744 14.276747
857   0  1 22.842545 14.276786 17.132172
858   0  1 22.842539 14.276768 19.987432
859   0  1 22.842504 14.276705 22.842651
860   0  1 22.842466 14.276670 25.697904
866   0  1 22.842545 17.132169 14.276790
867   0  1 22.842625 17.132404 17.132407
868   0  1 22.842702 17.132485 19.987741
869   0  1 22.842673 17.132274 22.842820
870   0  1 22.842599 17.132152 25.697955
876   0  1 22.842539 19.987428 14.276771
877   0  1 22.842702 19.987737 17.132489
878   0  1 22.843070 19.988534 19.988537
879   0  1 22.843433 19.988509 22.843579
880   0  1 22.843183 19.988171 25.698143
886   0  1 22.842504 22.842647 14.276709
887   0  1 22.842673 22.842817 17.132277
888   0  1 22.843433 22.843576 19.988513
889   0  1 22.848912 22.849056 22.849059
890   0  1 22.846067 22.846210 25.698305
896   0  1 22.842466 25.697900 14.276673
897   0  1 22.842599 25.697952 17.132156
898   0  1 22.843183 25.698139 19.988175
899   0  1 22.846067 25.698301 22.846214
900   0  1 22.842534 25.696333 25.696337
956   0  1 25.697774 14.276743 14.276747
957   0  1 25.697775 14.276785 17.132162
958   0  1 25.697771 14.276754 19.987400
959   0  1 25.697757 14.276670 22.842613
1998  0  1 27.125392 27.125536 21.412495
966   0  1 25.697775 17.132158 14.276788
967   0  1 25.697800 17.132399 17.132402
968   0  1 25.697820 17.132448 19.987702
969   0  1 25.697808 17.132152 22.842746
970   0  1 25.697757 17.131873 25.697904
976   0  1 25.697771 19.987396 14.276757
977   0  1 25.697820 19.987699 17.132451
978   0  1 25.697936 19.988499 19.988503
979   0  1 25.697996 19.988171 22.843330
980   0  1 25.697660 19.987040 25.697807
986   0  1 25.697757 22.842609 14.276673
987   0  1 25.697808 22.842743 17.132156
988   0  1 25.697996 22.843326 19.988175
989   0  1 25.698158 22.846210 22.846214
990   0  1 25.696190 22.842677 25.696337
881   0  1 22.846067 22.846210 28.552774
997   0  1 25.697757 25.697900 17.131876
998   0  1 25.697660 25.697803 19.987043
999   0  1 25.696190 25.696333 22.842680
1000  0  1 25.738876 25.739019 25.739023
1056  0  1  1.427497 15.704543 15.704546
1057  0  1  1.427477 15.704613 18.559918
1058  0  1  1.427485 15.704501 21.415095
1059  0  1  1.427529 15.704338 24.270282
1060  0  1  1.427554 15.704287 27.125539
1066  0  1  1.427477 18.559915 15.704617
1067  0  1  1.427359 18.560362 18.560365
1068  0  1  1.427280 18.560347 21.415559
1069  0  1  1.427401 18.559814 24.270410
1070  0  1  1.427450 18.559694 27.125539
1076  0  1  1.427485 21.415091 15.704504
1077  0  1  1.427280 21.415555 18.560350
1078  0  1  1.426876 21.417028 21.417031
1079  0  1  1.426715 21.416152 24.271096
1080  0  1  1.426771 21.415828 27.125539
1086  0  1  1.427529 24.270279 15.704341
1087  0  1  1.427401 24.270407 18.559817
1088  0  1  1.426715 24.271093 21.416156
1089  0  1  1.411778 24.286030 24.286033
1090  0  1  1.421032 24.276776 27.125539
1096  0  1  1.427554 27.125536 15.704291
1097  0  1  1.427450 27.125536 18.559697
1098  0  1  1.426771 27.125536 21.415832
1099  0  1  1.421032 27.125536 24.276779
1100  0  1  1.466531 27.125536 27.125539
1156  0  1  4.282719 15.704543 15.704546
1157  0  1  4.282665 15.704627 18.559941
1158  0  1  4.282663 15.704571 21.415149
1159  0  1  4.282717 15.704501 24.270327
1160  0  1  4.282745 15.704474 27.125539
1166  0  1  4.282665 18.559937 15.704630
1167  0  1  4.282409 18.560376 18.560379
1168  0  1  4.282130 18.560526 21.415681
1169  0  1  4.282253 18.560347 24.270531
1170  0  1  4.282303 18.560293 27.125539
1176  0  1  4.282663 21.415145 15.704575
1177  0  1  4.282130 21.415678 18.560530
1178  0  1  4.279973 21.417835 21.417839
1179  0  1  4.280780 21.417028 24.270935
1180  0  1  4.280793 21.417015 27.125539
1186  0  1  4.282717 24.270323 15.704504
1187  0  1  4.282253 24.270528 18.560350
1188  0  1  4.280780 24.270932 21.417031
1189  0  1  4.281656 24.271093 24.271096
1190  0  1  4.281980 24.271037 27.125539
1196  0  1  4.282745 27.125536 15.704478
1197  0  1  4.282303 27.125536 18.560296
1198  0  1  4.280793 27.125536 21.417018
1199  0  1  4.281980 27.125536 24.271041
1200  0  1  4.285317 27.125536 27.125539
1256  0  1  7.137965 15.704533 15.704537
1257  0  1  7.137868 15.704629 18.559943
1258  0  1  7.137871 15.704627 21.415147
1259  0  1  7.137893 15.704613 24.270335
1260  0  1  7.137904 15.704608 27.125539
1266  0  1  7.137868 18.559940 15.704633
1267  0  1  7.137456 18.560352 18.560355
1268  0  1  7.137432 18.560376 21.415402
1269  0  1  7.137446 18.560362 24.270452
1270  0  1  7.137456 18.560352 27.125539
1276  0  1  7.137871 21.415143 15.704630
1277  0  1  7.137432 21.415399 18.560379
1278  0  1  7.137282 21.415678 21.415681
1279  0  1  7.137461 21.415555 24.270531
1280  0  1  7.137515 21.415505 27.125539
1286  0  1  7.137893 24.270331 15.704617
1287  0  1  7.137446 24.270449 18.560365
1288  0  1  7.137461 24.270528 21.415559
1289  0  1  7.137994 24.270407 24.270410
1290  0  1  7.138114 24.270358 27.125539
1296  0  1  7.137904 27.125536 15.704611
1297  0  1  7.137456 27.125536 18.560356
1298  0  1  7.137515 27.125536 21.415509
1299  0  1  7.138114 27.125536 24.270361
1300  0  1  7.138518 27.125536 27.125539
1356  0  1  9.993312 15.704496 15.704500
1357  0  1  9.993275 15.704533 18.559846
1358  0  1  9.993265 15.704543 21.415093
1359  0  1  9.993265 15.704543 24.270315
1360  0  1  9.993266 15.704542 27.125539
1366  0  1  9.993275 18.559843 15.704537
1367  0  1  9.993179 18.559940 18.559943
1368  0  1  9.993181 18.559937 21.415147
1369  0  1  9.993195 18.559915 24.270335
1370  0  1  9.993200 18.559904 27.125539
1376  0  1  9.993265 21.415089 15.704546
1377  0  1  9.993181 21.415143 18.559941
1378  0  1  9.993237 21.415145 21.415149
1379  0  1  9.993307 21.415091 24.270327
1380  0  1  9.993334 21.415063 27.125539
1386  0  1  9.993265 24.270311 15.704546
1387  0  1  9.993195 24.270331 18.559918
1388  0  1  9.993307 24.270323 21.415095
1389  0  1  9.993470 24.270279 24.270282
1390  0  1  9.993521 24.270254 27.125539
1396  0  1  9.993266 27.125536 15.704545
1397  0  1  9.993200 27.125536 18.559908
1398  0  1  9.993334 27.125536 21.415067
1399  0  1  9.993521 27.125536 24.270257
1400  0  1  9.993605 27.125536 27.125539
1456  0  1 12.848832 15.704446 15.704449
1457  0  1 12.848832 15.704458 18.559793
1458  0  1 12.848832 15.704457 21.415059
1459  0  1 12.848832 15.704452 24.270300
1460  0  1 12.848832 15.704450 27.125539
1466  0  1 12.848832 18.559790 15.704461
1467  0  1 12.848832 18.559809 18.559812
1468  0  1 12.848832 18.559790 21.415061
1469  0  1 12.848832 18.559763 24.270295
1470  0  1 12.848832 18.559751 27.125539
1476  0  1 12.848832 21.415056 15.704461
1477  0  1 12.848832 21.415058 18.559793
1478  0  1 12.848832 21.415032 21.415035
1479  0  1 12.848832 21.414989 24.270277
1480  0  1 12.848832 21.414969 27.125539
1486  0  1 12.848832 24.270297 15.704456
1487  0  1 12.848832 24.270292 18.559766
1488  0  1 12.848832 24.270273 21.414993
1489  0  1 12.848832 24.270244 24.270248
1490  0  1 12.848832 24.270228 27.125539
1496  0  1 12.848832 27.125536 15.704453
1497  0  1 12.848832 27.125536 18.559755
1498  0  1 12.848832 27.125536 21.414972
1499  0  1 12.848832 27.125536 24.270232
1500  0  1 12.848832 27.125536 27.125539
1556  0  1 15.704353 15.704496 15.704500
1557  0  1 15.704390 15.704533 18.559846
1558  0  1 15.704400 15.704543 21.415093
1559  0  1 15.704399 15.704543 24.270315
1560  0  1 15.704398 15.704542 27.125539
1566  0  1 15.704390 18.559843 15.704537
1567  0  1 15.704486 18.559940 18.559943
1568  0  1 15.704483 18.559937 21.415147
1569  0  1 15.704470 18.559915 24.270335
1570  0  1 15.704464 18.559904 27.125539
1576  0  1 15.704400 21.415089 15.704546
1577  0  1 15.704483 21.415143 18.559941
1578  0  1 15.704428 21.415145 21.415149
1579  0  1 15.704357 21.415091 24.270327
1580  0  1 15.704331 21.415063 27.125539
1586  0  1 15.704399 24.270311 15.704546
1587  0  1 15.704470 24.270331 18.559918
1588  0  1 15.704357 24.270323 21.415095
1589  0  1 15.704194 24.270279 24.270282
1590  0  1 15.704144 24.270254 27.125539
1596  0  1 15.704398 27.125536 15.704545
1597  0  1 15.704464 27.125536 18.559908
1598  0  1 15.704331 27.125536 21.415067
1599  0  1 15.704144 27.125536 24.270257
1600  0  1 15.704060 27.125536 27.125539
1656  0  1 18.559699 15.704533 15.704537
1657  0  1 18.559796 15.704629 18.559943
1658  0  1 18.559794 15.704627 21.415147
1659  0  1 18.559771 15.704613 24.270335
1660  0  1 18.559761 15.704608 27.125539
1666  0  1 18.559796 18.559940 15.704633
1667  0  1 18.560209 18.560352 18.560355
1668  0  1 18.560232 18.560376 21.415402
1669  0  1 18.560218 18.560362 24.270452
1670  0  1 18.560209 18.560352 27.125539
1676  0  1 18.559794 21.415143 15.704630
1677  0  1 18.560232 21.415399 18.560379
1678  0  1 18.560383 21.415678 21.415681
1679  0  1 18.560203 21.415555 24.270531
1680  0  1 18.560149 21.415505 27.125539
1686  0  1 18.559771 24.270331 15.704617
1687  0  1 18.560218 24.270449 18.560365
1688  0  1 18.560203 24.270528 21.415559
1689  0  1 18.559670 24.270407 24.270410
1690  0  1 18.559550 24.270358 27.125539
1696  0  1 18.559761 27.125536 15.704611
1697  0  1 18.560209 27.125536 18.560356
1698  0  1 18.560149 27.125536 21.415509
1699  0  1 18.559550 27.125536 24.270361
1700  0  1 18.559146 27.125536 27.125539
1756  0  1 21.414946 15.704543 15.704546
1757  0  1 21.415000 15.704627 18.559941
1758  0  1 21.415002 15.704571 21.415149
1759  0  1 21.414948 15.704501 24.270327
1760  0  1 21.414920 15.704474 27.125539
1766  0  1 21.415000 18.559937 15.704630
1767  0  1 21.415255 18.560376 18.560379
1768  0  1 21.415534 18.560526 21.415681
1769  0  1 21.415412 18.560347 24.270531
1770  0  1 21.415362 18.560293 27.125539
1776  0  1 21.415002 21.415145 15.704575
1777  0  1 21.415534 21.415678 18.560530
1778  0  1 21.417692 21.417835 21.417839
1779  0  1 21.416885 21.417028 24.270935
1780  0  1 21.416871 21.417015 27.125539
1786  0  1 21.414948 24.270323 15.704504
1787  0  1 21.415412 24.270528 18.560350
1788  0  1 21.416885 24.270932 21.417031
1789  0  1 21.416009 24.271093 24.271096
1790  0  1 21.415685 24.271037 27.125539
1796  0  1 21.414920 27.125536 15.704478
1797  0  1 21.415362 27.125536 18.560296
1798  0  1 21.416871 27.125536 21.417018
1799  0  1 21.415685 27.125536 24.271041
1800  0  1 21.412348 27.125536 27.125539
1856  0  1 24.270168 15.704543 15.704546
1857  0  1 24.270188 15.704613 18.559918
1858  0  1 24.270180 15.704501 21.415095
1859  0  1 24.270135 15.704338 24.270282
1860  0  1 24.270110 15.704287 27.125539
1866  0  1 24.270188 18.559915 15.704617
1867  0  1 24.270306 18.560361 18.560365
1868  0  1 24.270384 18.560347 21.415559
1869  0  1 24.270264 18.559814 24.270410
1870  0  1 24.270214 18.559694 27.125539
1876  0  1 24.270180 21.415091 15.704504
1877  0  1 24.270384 21.415555 18.560350
1878  0  1 24.270788 21.417028 21.417031
1879  0  1 24.270949 21.416152 24.271096
1880  0  1 24.270894 21.415828 27.125539
1886  0  1 24.270135 24.270279 15.704341
1887  0  1 24.270264 24.270407 18.559817
1888  0  1 24.270949 24.271093 21.416156
1889  0  1 24.285887 24.286030 24.286033
1890  0  1 24.276632 24.276776 27.125539
1896  0  1 24.270110 27.125536 15.704291
1897  0  1 24.270214 27.125536 18.559697
1898  0  1 24.270894 27.125536 21.415832
1899  0  1 24.276632 27.125536 24.276779
1900  0  1 24.231134 27.125536 27.125539
1956  0  1 27.125392 15.704542 15.704545
1957  0  1 27.125392 15.704608 18.559908
1958  0  1 27.125392 15.704474 21.415067
1959  0  1 27.125392 15.704287 24.270257
1960  0  1 27.125392 15.704203 27.125539
1966  0  1 27.125392 18.559904 15.704611
1967  0  1 27.125392 18.560352 18.560356
1968  0  1 27.125392 18.560293 21.415509
1969  0  1 27.125392 18.559694 24.270361
1970  0  1 27.125392 18.559290 27.125539
1976  0  1 27.125392 21.415063 15.704478
1977  0  1 27.125392 21.415505 18.560296
1978  0  1 27.125392 21.417015 21.417018
1979  0  1 27.125392 21.415828 24.271041
1980  0  1 27.125392 21.412491 27.125539
1986  0  1 27.125392 24.270254 15.704291
1987  0  1 27.125392 24.270358 18.559697
1988  0  1 27.125392 24.271037 21.415832
1989  0  1 27.125392 24.276776 24.276779
1990  0  1 27.125392 24.231277 27.125539
1996  0  1 27.125392 27.125536 15.704207
1997  0  1 27.125392 27.125536 18.559293
809   0  1 22.846067 28.552770 22.846214
1     0  1 28.511909 28.512052 28.512056
10    0  1 28.511909 28.512052 25.739023
871   0  1 22.843183 19.988171 28.552936
91    0  1 28.511909 25.739019 28.512056
808   0  1 22.843183 28.552932 19.988175
771   0  1 19.988356 19.988499 28.552996
761   0  1 19.987555 17.132448 28.553112
271   0  1  5.709309 19.988499 28.552996
208   0  1  5.709309 28.552992 19.988503
708   0  1 19.988356 28.552992 19.988503
707   0  1 19.987555 28.553108 17.132451
996   0  1 25.697741 25.697884 14.276613
807   0  1 22.842599 28.553120 17.132156
709   0  1 19.988028 28.552932 22.843330
609   0  1 17.132009 28.553120 22.842746
608   0  1 17.132305 28.553108 19.987702
309   0  1  8.565656 28.553120 22.842746
760   0  1 19.987253 14.276754 25.697917
308   0  1  8.565360 28.553108 19.987702
209   0  1  5.709637 28.552932 22.843330
107   0  1  2.855065 28.553120 17.132156
207   0  1  5.710109 28.553108 17.132451
109   0  1  2.851598 28.552770 22.846214
108   0  1  2.854482 28.552932 19.988175
371   0  1  8.565360 19.987699 28.553112
696   0  1 17.132015 25.697919 14.276788
796   0  1 19.987253 25.697914 14.276757
181   0  1  2.851598 22.846210 28.552774
171   0  1  2.854482 19.988171 28.552936
781   0  1 19.988028 22.843326 28.552936
261   0  1  5.710109 17.132448 28.553112
281   0  1  5.709637 22.843326 28.552936
671   0  1 17.132305 19.987699 28.553112

