Generated by pymatgen.io.lammps.data.LammpsData

1998  atoms

   2  atom types

0.000000 28.553120  xlo xhi
0.000000 28.553120  ylo yhi
0.000000 28.553120  zlo zhi
0.000000 0.000000 0.000000  xy xz yz

Masses

1  55.845
2  30.200

Atoms

1     1  0.000000  0.000000  2.855312
2     1  0.000000  0.000000  5.710624
3     1  0.000000  0.000000  8.565936
4     1  0.000000  0.000000 11.421248
5     1  0.000000  0.000000 14.276560
6     1  0.000000  0.000000 17.131872
7     1  0.000000  0.000000 19.987184
8     1  0.000000  0.000000 22.842496
9     1  0.000000  0.000000 25.697808
10    1  0.000000  2.855312  0.000000
11    1  0.000000  2.855312  2.855312
12    1  0.000000  2.855312  5.710624
13    1  0.000000  2.855312  8.565936
14    1  0.000000  2.855312 11.421248
15    1  0.000000  2.855312 14.276560
16    1  0.000000  2.855312 17.131872
17    1  0.000000  2.855312 19.987184
18    1  0.000000  2.855312 22.842496
19    1  0.000000  2.855312 25.697808
20    1  0.000000  5.710624  0.000000
21    1  0.000000  5.710624  2.855312
22    1  0.000000  5.710624  5.710624
23    1  0.000000  5.710624  8.565936
24    1  0.000000  5.710624 11.421248
25    1  0.000000  5.710624 14.276560
26    1  0.000000  5.710624 17.131872
27    1  0.000000  5.710624 19.987184
28    1  0.000000  5.710624 22.842496
29    1  0.000000  5.710624 25.697808
30    1  0.000000  8.565936  0.000000
31    1  0.000000  8.565936  2.855312
32    1  0.000000  8.565936  5.710624
33    1  0.000000  8.565936  8.565936
34    1  0.000000  8.565936 11.421248
35    1  0.000000  8.565936 14.276560
36    1  0.000000  8.565936 17.131872
37    1  0.000000  8.565936 19.987184
38    1  0.000000  8.565936 22.842496
39    1  0.000000  8.565936 25.697808
40    1  0.000000 11.421248  0.000000
41    1  0.000000 11.421248  2.855312
42    1  0.000000 11.421248  5.710624
43    1  0.000000 11.421248  8.565936
44    1  0.000000 11.421248 11.421248
45    1  0.000000 11.421248 14.276560
46    1  0.000000 11.421248 17.131872
47    1  0.000000 11.421248 19.987184
48    1  0.000000 11.421248 22.842496
49    1  0.000000 11.421248 25.697808
50    1  0.000000 14.276560  0.000000
51    1  0.000000 14.276560  2.855312
52    1  0.000000 14.276560  5.710624
53    1  0.000000 14.276560  8.565936
54    1  0.000000 14.276560 11.421248
55    1  0.000000 14.276560 14.276560
56    1  0.000000 14.276560 17.131872
57    1  0.000000 14.276560 19.987184
58    1  0.000000 14.276560 22.842496
59    1  0.000000 14.276560 25.697808
60    1  0.000000 17.131872  0.000000
61    1  0.000000 17.131872  2.855312
62    1  0.000000 17.131872  5.710624
63    1  0.000000 17.131872  8.565936
64    1  0.000000 17.131872 11.421248
65    1  0.000000 17.131872 14.276560
66    1  0.000000 17.131872 17.131872
67    1  0.000000 17.131872 19.987184
68    1  0.000000 17.131872 22.842496
69    1  0.000000 17.131872 25.697808
70    1  0.000000 19.987184  0.000000
71    1  0.000000 19.987184  2.855312
72    1  0.000000 19.987184  5.710624
73    1  0.000000 19.987184  8.565936
74    1  0.000000 19.987184 11.421248
75    1  0.000000 19.987184 14.276560
76    1  0.000000 19.987184 17.131872
77    1  0.000000 19.987184 19.987184
78    1  0.000000 19.987184 22.842496
79    1  0.000000 19.987184 25.697808
80    1  0.000000 22.842496  0.000000
81    1  0.000000 22.842496  2.855312
82    1  0.000000 22.842496  5.710624
83    1  0.000000 22.842496  8.565936
84    1  0.000000 22.842496 11.421248
85    1  0.000000 22.842496 14.276560
86    1  0.000000 22.842496 17.131872
87    1  0.000000 22.842496 19.987184
88    1  0.000000 22.842496 22.842496
89    1  0.000000 22.842496 25.697808
90    1  0.000000 25.697808  0.000000
91    1  0.000000 25.697808  2.855312
92    1  0.000000 25.697808  5.710624
93    1  0.000000 25.697808  8.565936
94    1  0.000000 25.697808 11.421248
95    1  0.000000 25.697808 14.276560
96    1  0.000000 25.697808 17.131872
97    1  0.000000 25.697808 19.987184
98    1  0.000000 25.697808 22.842496
99    1  0.000000 25.697808 25.697808
100   1  2.855312  0.000000  0.000000
101   1  2.855312  0.000000  2.855312
102   1  2.855312  0.000000  5.710624
103   1  2.855312  0.000000  8.565936
104   1  2.855312  0.000000 11.421248
105   1  2.855312  0.000000 14.276560
106   1  2.855312  0.000000 17.131872
107   1  2.855312  0.000000 19.987184
108   1  2.855312  0.000000 22.842496
109   1  2.855312  0.000000 25.697808
110   1  2.855312  2.855312  0.000000
111   1  2.855312  2.855312  2.855312
112   1  2.855312  2.855312  5.710624
113   1  2.855312  2.855312  8.565936
114   1  2.855312  2.855312 11.421248
115   1  2.855312  2.855312 14.276560
116   1  2.855312  2.855312 17.131872
117   1  2.855312  2.855312 19.987184
118   1  2.855312  2.855312 22.842496
119   1  2.855312  2.855312 25.697808
120   1  2.855312  5.710624  0.000000
121   1  2.855312  5.710624  2.855312
122   1  2.855312  5.710624  5.710624
123   1  2.855312  5.710624  8.565936
124   1  2.855312  5.710624 11.421248
125   1  2.855312  5.710624 14.276560
126   1  2.855312  5.710624 17.131872
127   1  2.855312  5.710624 19.987184
128   1  2.855312  5.710624 22.842496
129   1  2.855312  5.710624 25.697808
130   1  2.855312  8.565936  0.000000
131   1  2.855312  8.565936  2.855312
132   1  2.855312  8.565936  5.710624
133   1  2.855312  8.565936  8.565936
134   1  2.855312  8.565936 11.421248
135   1  2.855312  8.565936 14.276560
136   1  2.855312  8.565936 17.131872
137   1  2.855312  8.565936 19.987184
138   1  2.855312  8.565936 22.842496
139   1  2.855312  8.565936 25.697808
140   1  2.855312 11.421248  0.000000
141   1  2.855312 11.421248  2.855312
142   1  2.855312 11.421248  5.710624
143   1  2.855312 11.421248  8.565936
144   1  2.855312 11.421248 11.421248
145   1  2.855312 11.421248 14.276560
146   1  2.855312 11.421248 17.131872
147   1  2.855312 11.421248 19.987184
148   1  2.855312 11.421248 22.842496
149   1  2.855312 11.421248 25.697808
150   1  2.855312 14.276560  0.000000
151   1  2.855312 14.276560  2.855312
152   1  2.855312 14.276560  5.710624
153   1  2.855312 14.276560  8.565936
154   1  2.855312 14.276560 11.421248
155   1  2.855312 14.276560 14.276560
156   1  2.855312 14.276560 17.131872
157   1  2.855312 14.276560 19.987184
158   1  2.855312 14.276560 22.842496
159   1  2.855312 14.276560 25.697808
160   1  2.855312 17.131872  0.000000
161   1  2.855312 17.131872  2.855312
162   1  2.855312 17.131872  5.710624
163   1  2.855312 17.131872  8.565936
164   1  2.855312 17.131872 11.421248
165   1  2.855312 17.131872 14.276560
166   1  2.855312 17.131872 17.131872
167   1  2.855312 17.131872 19.987184
168   1  2.855312 17.131872 22.842496
169   1  2.855312 17.131872 25.697808
170   1  2.855312 19.987184  0.000000
171   1  2.855312 19.987184  2.855312
172   1  2.855312 19.987184  5.710624
173   1  2.855312 19.987184  8.565936
174   1  2.855312 19.987184 11.421248
175   1  2.855312 19.987184 14.276560
176   1  2.855312 19.987184 17.131872
177   1  2.855312 19.987184 19.987184
178   1  2.855312 19.987184 22.842496
179   1  2.855312 19.987184 25.697808
180   1  2.855312 22.842496  0.000000
181   1  2.855312 22.842496  2.855312
182   1  2.855312 22.842496  5.710624
183   1  2.855312 22.842496  8.565936
184   1  2.855312 22.842496 11.421248
185   1  2.855312 22.842496 14.276560
186   1  2.855312 22.842496 17.131872
187   1  2.855312 22.842496 19.987184
188   1  2.855312 22.842496 22.842496
189   1  2.855312 22.842496 25.697808
190   1  2.855312 25.697808  0.000000
191   1  2.855312 25.697808  2.855312
192   1  2.855312 25.697808  5.710624
193   1  2.855312 25.697808  8.565936
194   1  2.855312 25.697808 11.421248
195   1  2.855312 25.697808 14.276560
196   1  2.855312 25.697808 17.131872
197   1  2.855312 25.697808 19.987184
198   1  2.855312 25.697808 22.842496
199   1  2.855312 25.697808 25.697808
200   1  5.710624  0.000000  0.000000
201   1  5.710624  0.000000  2.855312
202   1  5.710624  0.000000  5.710624
203   1  5.710624  0.000000  8.565936
204   1  5.710624  0.000000 11.421248
205   1  5.710624  0.000000 14.276560
206   1  5.710624  0.000000 17.131872
207   1  5.710624  0.000000 19.987184
208   1  5.710624  0.000000 22.842496
209   1  5.710624  0.000000 25.697808
210   1  5.710624  2.855312  0.000000
211   1  5.710624  2.855312  2.855312
212   1  5.710624  2.855312  5.710624
213   1  5.710624  2.855312  8.565936
214   1  5.710624  2.855312 11.421248
215   1  5.710624  2.855312 14.276560
216   1  5.710624  2.855312 17.131872
217   1  5.710624  2.855312 19.987184
218   1  5.710624  2.855312 22.842496
219   1  5.710624  2.855312 25.697808
220   1  5.710624  5.710624  0.000000
221   1  5.710624  5.710624  2.855312
222   1  5.710624  5.710624  5.710624
223   1  5.710624  5.710624  8.565936
224   1  5.710624  5.710624 11.421248
225   1  5.710624  5.710624 14.276560
226   1  5.710624  5.710624 17.131872
227   1  5.710624  5.710624 19.987184
228   1  5.710624  5.710624 22.842496
229   1  5.710624  5.710624 25.697808
230   1  5.710624  8.565936  0.000000
231   1  5.710624  8.565936  2.855312
232   1  5.710624  8.565936  5.710624
233   1  5.710624  8.565936  8.565936
234   1  5.710624  8.565936 11.421248
235   1  5.710624  8.565936 14.276560
236   1  5.710624  8.565936 17.131872
237   1  5.710624  8.565936 19.987184
238   1  5.710624  8.565936 22.842496
239   1  5.710624  8.565936 25.697808
240   1  5.710624 11.421248  0.000000
241   1  5.710624 11.421248  2.855312
242   1  5.710624 11.421248  5.710624
243   1  5.710624 11.421248  8.565936
244   1  5.710624 11.421248 11.421248
245   1  5.710624 11.421248 14.276560
246   1  5.710624 11.421248 17.131872
247   1  5.710624 11.421248 19.987184
248   1  5.710624 11.421248 22.842496
249   1  5.710624 11.421248 25.697808
250   1  5.710624 14.276560  0.000000
251   1  5.710624 14.276560  2.855312
252   1  5.710624 14.276560  5.710624
253   1  5.710624 14.276560  8.565936
254   1  5.710624 14.276560 11.421248
255   1  5.710624 14.276560 14.276560
256   1  5.710624 14.276560 17.131872
257   1  5.710624 14.276560 19.987184
258   1  5.710624 14.276560 22.842496
259   1  5.710624 14.276560 25.697808
260   1  5.710624 17.131872  0.000000
261   1  5.710624 17.131872  2.855312
262   1  5.710624 17.131872  5.710624
263   1  5.710624 17.131872  8.565936
264   1  5.710624 17.131872 11.421248
265   1  5.710624 17.131872 14.276560
266   1  5.710624 17.131872 17.131872
267   1  5.710624 17.131872 19.987184
268   1  5.710624 17.131872 22.842496
269   1  5.710624 17.131872 25.697808
270   1  5.710624 19.987184  0.000000
271   1  5.710624 19.987184  2.855312
272   1  5.710624 19.987184  5.710624
273   1  5.710624 19.987184  8.565936
274   1  5.710624 19.987184 11.421248
275   1  5.710624 19.987184 14.276560
276   1  5.710624 19.987184 17.131872
277   1  5.710624 19.987184 19.987184
278   1  5.710624 19.987184 22.842496
279   1  5.710624 19.987184 25.697808
280   1  5.710624 22.842496  0.000000
281   1  5.710624 22.842496  2.855312
282   1  5.710624 22.842496  5.710624
283   1  5.710624 22.842496  8.565936
284   1  5.710624 22.842496 11.421248
285   1  5.710624 22.842496 14.276560
286   1  5.710624 22.842496 17.131872
287   1  5.710624 22.842496 19.987184
288   1  5.710624 22.842496 22.842496
289   1  5.710624 22.842496 25.697808
290   1  5.710624 25.697808  0.000000
291   1  5.710624 25.697808  2.855312
292   1  5.710624 25.697808  5.710624
293   1  5.710624 25.697808  8.565936
294   1  5.710624 25.697808 11.421248
295   1  5.710624 25.697808 14.276560
296   1  5.710624 25.697808 17.131872
297   1  5.710624 25.697808 19.987184
298   1  5.710624 25.697808 22.842496
299   1  5.710624 25.697808 25.697808
300   1  8.565936  0.000000  0.000000
301   1  8.565936  0.000000  2.855312
302   1  8.565936  0.000000  5.710624
303   1  8.565936  0.000000  8.565936
304   1  8.565936  0.000000 11.421248
305   1  8.565936  0.000000 14.276560
306   1  8.565936  0.000000 17.131872
307   1  8.565936  0.000000 19.987184
308   1  8.565936  0.000000 22.842496
309   1  8.565936  0.000000 25.697808
310   1  8.565936  2.855312  0.000000
311   1  8.565936  2.855312  2.855312
312   1  8.565936  2.855312  5.710624
313   1  8.565936  2.855312  8.565936
314   1  8.565936  2.855312 11.421248
315   1  8.565936  2.855312 14.276560
316   1  8.565936  2.855312 17.131872
317   1  8.565936  2.855312 19.987184
318   1  8.565936  2.855312 22.842496
319   1  8.565936  2.855312 25.697808
320   1  8.565936  5.710624  0.000000
321   1  8.565936  5.710624  2.855312
322   1  8.565936  5.710624  5.710624
323   1  8.565936  5.710624  8.565936
324   1  8.565936  5.710624 11.421248
325   1  8.565936  5.710624 14.276560
326   1  8.565936  5.710624 17.131872
327   1  8.565936  5.710624 19.987184
328   1  8.565936  5.710624 22.842496
329   1  8.565936  5.710624 25.697808
330   1  8.565936  8.565936  0.000000
331   1  8.565936  8.565936  2.855312
332   1  8.565936  8.565936  5.710624
333   1  8.565936  8.565936  8.565936
334   1  8.565936  8.565936 11.421248
335   1  8.565936  8.565936 14.276560
336   1  8.565936  8.565936 17.131872
337   1  8.565936  8.565936 19.987184
338   1  8.565936  8.565936 22.842496
339   1  8.565936  8.565936 25.697808
340   1  8.565936 11.421248  0.000000
341   1  8.565936 11.421248  2.855312
342   1  8.565936 11.421248  5.710624
343   1  8.565936 11.421248  8.565936
344   1  8.565936 11.421248 11.421248
345   1  8.565936 11.421248 14.276560
346   1  8.565936 11.421248 17.131872
347   1  8.565936 11.421248 19.987184
348   1  8.565936 11.421248 22.842496
349   1  8.565936 11.421248 25.697808
350   1  8.565936 14.276560  0.000000
351   1  8.565936 14.276560  2.855312
352   1  8.565936 14.276560  5.710624
353   1  8.565936 14.276560  8.565936
354   1  8.565936 14.276560 11.421248
355   1  8.565936 14.276560 14.276560
356   1  8.565936 14.276560 17.131872
357   1  8.565936 14.276560 19.987184
358   1  8.565936 14.276560 22.842496
359   1  8.565936 14.276560 25.697808
360   1  8.565936 17.131872  0.000000
361   1  8.565936 17.131872  2.855312
362   1  8.565936 17.131872  5.710624
363   1  8.565936 17.131872  8.565936
364   1  8.565936 17.131872 11.421248
365   1  8.565936 17.131872 14.276560
366   1  8.565936 17.131872 17.131872
367   1  8.565936 17.131872 19.987184
368   1  8.565936 17.131872 22.842496
369   1  8.565936 17.131872 25.697808
370   1  8.565936 19.987184  0.000000
371   1  8.565936 19.987184  2.855312
372   1  8.565936 19.987184  5.710624
373   1  8.565936 19.987184  8.565936
374   1  8.565936 19.987184 11.421248
375   1  8.565936 19.987184 14.276560
376   1  8.565936 19.987184 17.131872
377   1  8.565936 19.987184 19.987184
378   1  8.565936 19.987184 22.842496
379   1  8.565936 19.987184 25.697808
380   1  8.565936 22.842496  0.000000
381   1  8.565936 22.842496  2.855312
382   1  8.565936 22.842496  5.710624
383   1  8.565936 22.842496  8.565936
384   1  8.565936 22.842496 11.421248
385   1  8.565936 22.842496 14.276560
386   1  8.565936 22.842496 17.131872
387   1  8.565936 22.842496 19.987184
388   1  8.565936 22.842496 22.842496
389   1  8.565936 22.842496 25.697808
390   1  8.565936 25.697808  0.000000
391   1  8.565936 25.697808  2.855312
392   1  8.565936 25.697808  5.710624
393   1  8.565936 25.697808  8.565936
394   1  8.565936 25.697808 11.421248
395   1  8.565936 25.697808 14.276560
396   1  8.565936 25.697808 17.131872
397   1  8.565936 25.697808 19.987184
398   1  8.565936 25.697808 22.842496
399   1  8.565936 25.697808 25.697808
400   1 11.421248  0.000000  0.000000
401   1 11.421248  0.000000  2.855312
402   1 11.421248  0.000000  5.710624
403   1 11.421248  0.000000  8.565936
404   1 11.421248  0.000000 11.421248
405   1 11.421248  0.000000 14.276560
406   1 11.421248  0.000000 17.131872
407   1 11.421248  0.000000 19.987184
408   1 11.421248  0.000000 22.842496
409   1 11.421248  0.000000 25.697808
410   1 11.421248  2.855312  0.000000
411   1 11.421248  2.855312  2.855312
412   1 11.421248  2.855312  5.710624
413   1 11.421248  2.855312  8.565936
414   1 11.421248  2.855312 11.421248
415   1 11.421248  2.855312 14.276560
416   1 11.421248  2.855312 17.131872
417   1 11.421248  2.855312 19.987184
418   1 11.421248  2.855312 22.842496
419   1 11.421248  2.855312 25.697808
420   1 11.421248  5.710624  0.000000
421   1 11.421248  5.710624  2.855312
422   1 11.421248  5.710624  5.710624
423   1 11.421248  5.710624  8.565936
424   1 11.421248  5.710624 11.421248
425   1 11.421248  5.710624 14.276560
426   1 11.421248  5.710624 17.131872
427   1 11.421248  5.710624 19.987184
428   1 11.421248  5.710624 22.842496
429   1 11.421248  5.710624 25.697808
430   1 11.421248  8.565936  0.000000
431   1 11.421248  8.565936  2.855312
432   1 11.421248  8.565936  5.710624
433   1 11.421248  8.565936  8.565936
434   1 11.421248  8.565936 11.421248
435   1 11.421248  8.565936 14.276560
436   1 11.421248  8.565936 17.131872
437   1 11.421248  8.565936 19.987184
438   1 11.421248  8.565936 22.842496
439   1 11.421248  8.565936 25.697808
440   1 11.421248 11.421248  0.000000
441   1 11.421248 11.421248  2.855312
442   1 11.421248 11.421248  5.710624
443   1 11.421248 11.421248  8.565936
444   1 11.421248 11.421248 11.421248
445   1 11.421248 11.421248 14.276560
446   1 11.421248 11.421248 17.131872
447   1 11.421248 11.421248 19.987184
448   1 11.421248 11.421248 22.842496
449   1 11.421248 11.421248 25.697808
450   1 11.421248 14.276560  0.000000
451   1 11.421248 14.276560  2.855312
452   1 11.421248 14.276560  5.710624
453   1 11.421248 14.276560  8.565936
454   1 11.421248 14.276560 11.421248
455   1 11.421248 14.276560 14.276560
456   1 11.421248 14.276560 17.131872
457   1 11.421248 14.276560 19.987184
458   1 11.421248 14.276560 22.842496
459   1 11.421248 14.276560 25.697808
460   1 11.421248 17.131872  0.000000
461   1 11.421248 17.131872  2.855312
462   1 11.421248 17.131872  5.710624
463   1 11.421248 17.131872  8.565936
464   1 11.421248 17.131872 11.421248
465   1 11.421248 17.131872 14.276560
466   1 11.421248 17.131872 17.131872
467   1 11.421248 17.131872 19.987184
468   1 11.421248 17.131872 22.842496
469   1 11.421248 17.131872 25.697808
470   1 11.421248 19.987184  0.000000
471   1 11.421248 19.987184  2.855312
472   1 11.421248 19.987184  5.710624
473   1 11.421248 19.987184  8.565936
474   1 11.421248 19.987184 11.421248
475   1 11.421248 19.987184 14.276560
476   1 11.421248 19.987184 17.131872
477   1 11.421248 19.987184 19.987184
478   1 11.421248 19.987184 22.842496
479   1 11.421248 19.987184 25.697808
480   1 11.421248 22.842496  0.000000
481   1 11.421248 22.842496  2.855312
482   1 11.421248 22.842496  5.710624
483   1 11.421248 22.842496  8.565936
484   1 11.421248 22.842496 11.421248
485   1 11.421248 22.842496 14.276560
486   1 11.421248 22.842496 17.131872
487   1 11.421248 22.842496 19.987184
488   1 11.421248 22.842496 22.842496
489   1 11.421248 22.842496 25.697808
490   1 11.421248 25.697808  0.000000
491   1 11.421248 25.697808  2.855312
492   1 11.421248 25.697808  5.710624
493   1 11.421248 25.697808  8.565936
494   1 11.421248 25.697808 11.421248
495   1 11.421248 25.697808 14.276560
496   1 11.421248 25.697808 17.131872
497   1 11.421248 25.697808 19.987184
498   1 11.421248 25.697808 22.842496
499   1 11.421248 25.697808 25.697808
500   1 14.276560  0.000000  0.000000
501   1 14.276560  0.000000  2.855312
502   1 14.276560  0.000000  5.710624
503   1 14.276560  0.000000  8.565936
504   1 14.276560  0.000000 11.421248
505   1 14.276560  0.000000 14.276560
506   1 14.276560  0.000000 17.131872
507   1 14.276560  0.000000 19.987184
508   1 14.276560  0.000000 22.842496
509   1 14.276560  0.000000 25.697808
510   1 14.276560  2.855312  0.000000
511   1 14.276560  2.855312  2.855312
512   1 14.276560  2.855312  5.710624
513   1 14.276560  2.855312  8.565936
514   1 14.276560  2.855312 11.421248
515   1 14.276560  2.855312 14.276560
516   1 14.276560  2.855312 17.131872
517   1 14.276560  2.855312 19.987184
518   1 14.276560  2.855312 22.842496
519   1 14.276560  2.855312 25.697808
520   1 14.276560  5.710624  0.000000
521   1 14.276560  5.710624  2.855312
522   1 14.276560  5.710624  5.710624
523   1 14.276560  5.710624  8.565936
524   1 14.276560  5.710624 11.421248
525   1 14.276560  5.710624 14.276560
526   1 14.276560  5.710624 17.131872
527   1 14.276560  5.710624 19.987184
528   1 14.276560  5.710624 22.842496
529   1 14.276560  5.710624 25.697808
530   1 14.276560  8.565936  0.000000
531   1 14.276560  8.565936  2.855312
532   1 14.276560  8.565936  5.710624
533   1 14.276560  8.565936  8.565936
534   1 14.276560  8.565936 11.421248
535   1 14.276560  8.565936 14.276560
536   1 14.276560  8.565936 17.131872
537   1 14.276560  8.565936 19.987184
538   1 14.276560  8.565936 22.842496
539   1 14.276560  8.565936 25.697808
540   1 14.276560 11.421248  0.000000
541   1 14.276560 11.421248  2.855312
542   1 14.276560 11.421248  5.710624
543   1 14.276560 11.421248  8.565936
544   1 14.276560 11.421248 11.421248
545   1 14.276560 11.421248 14.276560
546   1 14.276560 11.421248 17.131872
547   1 14.276560 11.421248 19.987184
548   1 14.276560 11.421248 22.842496
549   1 14.276560 11.421248 25.697808
550   1 14.276560 14.276560  0.000000
551   1 14.276560 14.276560  2.855312
552   1 14.276560 14.276560  5.710624
553   1 14.276560 14.276560  8.565936
554   1 14.276560 14.276560 11.421248
555   1 14.276560 14.276560 17.131872
556   1 14.276560 14.276560 19.987184
557   1 14.276560 14.276560 22.842496
558   1 14.276560 14.276560 25.697808
559   1 14.276560 17.131872  0.000000
560   1 14.276560 17.131872  2.855312
561   1 14.276560 17.131872  5.710624
562   1 14.276560 17.131872  8.565936
563   1 14.276560 17.131872 11.421248
564   1 14.276560 17.131872 14.276560
565   1 14.276560 17.131872 17.131872
566   1 14.276560 17.131872 19.987184
567   1 14.276560 17.131872 22.842496
568   1 14.276560 17.131872 25.697808
569   1 14.276560 19.987184  0.000000
570   1 14.276560 19.987184  2.855312
571   1 14.276560 19.987184  5.710624
572   1 14.276560 19.987184  8.565936
573   1 14.276560 19.987184 11.421248
574   1 14.276560 19.987184 14.276560
575   1 14.276560 19.987184 17.131872
576   1 14.276560 19.987184 19.987184
577   1 14.276560 19.987184 22.842496
578   1 14.276560 19.987184 25.697808
579   1 14.276560 22.842496  0.000000
580   1 14.276560 22.842496  2.855312
581   1 14.276560 22.842496  5.710624
582   1 14.276560 22.842496  8.565936
583   1 14.276560 22.842496 11.421248
584   1 14.276560 22.842496 14.276560
585   1 14.276560 22.842496 17.131872
586   1 14.276560 22.842496 19.987184
587   1 14.276560 22.842496 22.842496
588   1 14.276560 22.842496 25.697808
589   1 14.276560 25.697808  0.000000
590   1 14.276560 25.697808  2.855312
591   1 14.276560 25.697808  5.710624
592   1 14.276560 25.697808  8.565936
593   1 14.276560 25.697808 11.421248
594   1 14.276560 25.697808 14.276560
595   1 14.276560 25.697808 17.131872
596   1 14.276560 25.697808 19.987184
597   1 14.276560 25.697808 22.842496
598   1 14.276560 25.697808 25.697808
599   1 17.131872  0.000000  0.000000
600   1 17.131872  0.000000  2.855312
601   1 17.131872  0.000000  5.710624
602   1 17.131872  0.000000  8.565936
603   1 17.131872  0.000000 11.421248
604   1 17.131872  0.000000 14.276560
605   1 17.131872  0.000000 17.131872
606   1 17.131872  0.000000 19.987184
607   1 17.131872  0.000000 22.842496
608   1 17.131872  0.000000 25.697808
609   1 17.131872  2.855312  0.000000
610   1 17.131872  2.855312  2.855312
611   1 17.131872  2.855312  5.710624
612   1 17.131872  2.855312  8.565936
613   1 17.131872  2.855312 11.421248
614   1 17.131872  2.855312 14.276560
615   1 17.131872  2.855312 17.131872
616   1 17.131872  2.855312 19.987184
617   1 17.131872  2.855312 22.842496
618   1 17.131872  2.855312 25.697808
619   1 17.131872  5.710624  0.000000
620   1 17.131872  5.710624  2.855312
621   1 17.131872  5.710624  5.710624
622   1 17.131872  5.710624  8.565936
623   1 17.131872  5.710624 11.421248
624   1 17.131872  5.710624 14.276560
625   1 17.131872  5.710624 17.131872
626   1 17.131872  5.710624 19.987184
627   1 17.131872  5.710624 22.842496
628   1 17.131872  5.710624 25.697808
629   1 17.131872  8.565936  0.000000
630   1 17.131872  8.565936  2.855312
631   1 17.131872  8.565936  5.710624
632   1 17.131872  8.565936  8.565936
633   1 17.131872  8.565936 11.421248
634   1 17.131872  8.565936 14.276560
635   1 17.131872  8.565936 17.131872
636   1 17.131872  8.565936 19.987184
637   1 17.131872  8.565936 22.842496
638   1 17.131872  8.565936 25.697808
639   1 17.131872 11.421248  0.000000
640   1 17.131872 11.421248  2.855312
641   1 17.131872 11.421248  5.710624
642   1 17.131872 11.421248  8.565936
643   1 17.131872 11.421248 11.421248
644   1 17.131872 11.421248 14.276560
645   1 17.131872 11.421248 17.131872
646   1 17.131872 11.421248 19.987184
647   1 17.131872 11.421248 22.842496
648   1 17.131872 11.421248 25.697808
649   1 17.131872 14.276560  0.000000
650   1 17.131872 14.276560  2.855312
651   1 17.131872 14.276560  5.710624
652   1 17.131872 14.276560  8.565936
653   1 17.131872 14.276560 11.421248
654   1 17.131872 14.276560 14.276560
655   1 17.131872 14.276560 17.131872
656   1 17.131872 14.276560 19.987184
657   1 17.131872 14.276560 22.842496
658   1 17.131872 14.276560 25.697808
659   1 17.131872 17.131872  0.000000
660   1 17.131872 17.131872  2.855312
661   1 17.131872 17.131872  5.710624
662   1 17.131872 17.131872  8.565936
663   1 17.131872 17.131872 11.421248
664   1 17.131872 17.131872 14.276560
665   1 17.131872 17.131872 17.131872
666   1 17.131872 17.131872 19.987184
667   1 17.131872 17.131872 22.842496
668   1 17.131872 17.131872 25.697808
669   1 17.131872 19.987184  0.000000
670   1 17.131872 19.987184  2.855312
671   1 17.131872 19.987184  5.710624
672   1 17.131872 19.987184  8.565936
673   1 17.131872 19.987184 11.421248
674   1 17.131872 19.987184 14.276560
675   1 17.131872 19.987184 17.131872
676   1 17.131872 19.987184 19.987184
677   1 17.131872 19.987184 22.842496
678   1 17.131872 19.987184 25.697808
679   1 17.131872 22.842496  0.000000
680   1 17.131872 22.842496  2.855312
681   1 17.131872 22.842496  5.710624
682   1 17.131872 22.842496  8.565936
683   1 17.131872 22.842496 11.421248
684   1 17.131872 22.842496 14.276560
685   1 17.131872 22.842496 17.131872
686   1 17.131872 22.842496 19.987184
687   1 17.131872 22.842496 22.842496
688   1 17.131872 22.842496 25.697808
689   1 17.131872 25.697808  0.000000
690   1 17.131872 25.697808  2.855312
691   1 17.131872 25.697808  5.710624
692   1 17.131872 25.697808  8.565936
693   1 17.131872 25.697808 11.421248
694   1 17.131872 25.697808 14.276560
695   1 17.131872 25.697808 17.131872
696   1 17.131872 25.697808 19.987184
697   1 17.131872 25.697808 22.842496
698   1 17.131872 25.697808 25.697808
699   1 19.987184  0.000000  0.000000
700   1 19.987184  0.000000  2.855312
701   1 19.987184  0.000000  5.710624
702   1 19.987184  0.000000  8.565936
703   1 19.987184  0.000000 11.421248
704   1 19.987184  0.000000 14.276560
705   1 19.987184  0.000000 17.131872
706   1 19.987184  0.000000 19.987184
707   1 19.987184  0.000000 22.842496
708   1 19.987184  0.000000 25.697808
709   1 19.987184  2.855312  0.000000
710   1 19.987184  2.855312  2.855312
711   1 19.987184  2.855312  5.710624
712   1 19.987184  2.855312  8.565936
713   1 19.987184  2.855312 11.421248
714   1 19.987184  2.855312 14.276560
715   1 19.987184  2.855312 17.131872
716   1 19.987184  2.855312 19.987184
717   1 19.987184  2.855312 22.842496
718   1 19.987184  2.855312 25.697808
719   1 19.987184  5.710624  0.000000
720   1 19.987184  5.710624  2.855312
721   1 19.987184  5.710624  5.710624
722   1 19.987184  5.710624  8.565936
723   1 19.987184  5.710624 11.421248
724   1 19.987184  5.710624 14.276560
725   1 19.987184  5.710624 17.131872
726   1 19.987184  5.710624 19.987184
727   1 19.987184  5.710624 22.842496
728   1 19.987184  5.710624 25.697808
729   1 19.987184  8.565936  0.000000
730   1 19.987184  8.565936  2.855312
731   1 19.987184  8.565936  5.710624
732   1 19.987184  8.565936  8.565936
733   1 19.987184  8.565936 11.421248
734   1 19.987184  8.565936 14.276560
735   1 19.987184  8.565936 17.131872
736   1 19.987184  8.565936 19.987184
737   1 19.987184  8.565936 22.842496
738   1 19.987184  8.565936 25.697808
739   1 19.987184 11.421248  0.000000
740   1 19.987184 11.421248  2.855312
741   1 19.987184 11.421248  5.710624
742   1 19.987184 11.421248  8.565936
743   1 19.987184 11.421248 11.421248
744   1 19.987184 11.421248 14.276560
745   1 19.987184 11.421248 17.131872
746   1 19.987184 11.421248 19.987184
747   1 19.987184 11.421248 22.842496
748   1 19.987184 11.421248 25.697808
749   1 19.987184 14.276560  0.000000
750   1 19.987184 14.276560  2.855312
751   1 19.987184 14.276560  5.710624
752   1 19.987184 14.276560  8.565936
753   1 19.987184 14.276560 11.421248
754   1 19.987184 14.276560 14.276560
755   1 19.987184 14.276560 17.131872
756   1 19.987184 14.276560 19.987184
757   1 19.987184 14.276560 22.842496
758   1 19.987184 14.276560 25.697808
759   1 19.987184 17.131872  0.000000
760   1 19.987184 17.131872  2.855312
761   1 19.987184 17.131872  5.710624
762   1 19.987184 17.131872  8.565936
763   1 19.987184 17.131872 11.421248
764   1 19.987184 17.131872 14.276560
765   1 19.987184 17.131872 17.131872
766   1 19.987184 17.131872 19.987184
767   1 19.987184 17.131872 22.842496
768   1 19.987184 17.131872 25.697808
769   1 19.987184 19.987184  0.000000
770   1 19.987184 19.987184  2.855312
771   1 19.987184 19.987184  5.710624
772   1 19.987184 19.987184  8.565936
773   1 19.987184 19.987184 11.421248
774   1 19.987184 19.987184 14.276560
775   1 19.987184 19.987184 17.131872
776   1 19.987184 19.987184 19.987184
777   1 19.987184 19.987184 22.842496
778   1 19.987184 19.987184 25.697808
779   1 19.987184 22.842496  0.000000
780   1 19.987184 22.842496  2.855312
781   1 19.987184 22.842496  5.710624
782   1 19.987184 22.842496  8.565936
783   1 19.987184 22.842496 11.421248
784   1 19.987184 22.842496 14.276560
785   1 19.987184 22.842496 17.131872
786   1 19.987184 22.842496 19.987184
787   1 19.987184 22.842496 22.842496
788   1 19.987184 22.842496 25.697808
789   1 19.987184 25.697808  0.000000
790   1 19.987184 25.697808  2.855312
791   1 19.987184 25.697808  5.710624
792   1 19.987184 25.697808  8.565936
793   1 19.987184 25.697808 11.421248
794   1 19.987184 25.697808 14.276560
795   1 19.987184 25.697808 17.131872
796   1 19.987184 25.697808 19.987184
797   1 19.987184 25.697808 22.842496
798   1 19.987184 25.697808 25.697808
799   1 22.842496  0.000000  0.000000
800   1 22.842496  0.000000  2.855312
801   1 22.842496  0.000000  5.710624
802   1 22.842496  0.000000  8.565936
803   1 22.842496  0.000000 11.421248
804   1 22.842496  0.000000 14.276560
805   1 22.842496  0.000000 17.131872
806   1 22.842496  0.000000 19.987184
807   1 22.842496  0.000000 22.842496
808   1 22.842496  0.000000 25.697808
809   1 22.842496  2.855312  0.000000
810   1 22.842496  2.855312  2.855312
811   1 22.842496  2.855312  5.710624
812   1 22.842496  2.855312  8.565936
813   1 22.842496  2.855312 11.421248
814   1 22.842496  2.855312 14.276560
815   1 22.842496  2.855312 17.131872
816   1 22.842496  2.855312 19.987184
817   1 22.842496  2.855312 22.842496
818   1 22.842496  2.855312 25.697808
819   1 22.842496  5.710624  0.000000
820   1 22.842496  5.710624  2.855312
821   1 22.842496  5.710624  5.710624
822   1 22.842496  5.710624  8.565936
823   1 22.842496  5.710624 11.421248
824   1 22.842496  5.710624 14.276560
825   1 22.842496  5.710624 17.131872
826   1 22.842496  5.710624 19.987184
827   1 22.842496  5.710624 22.842496
828   1 22.842496  5.710624 25.697808
829   1 22.842496  8.565936  0.000000
830   1 22.842496  8.565936  2.855312
831   1 22.842496  8.565936  5.710624
832   1 22.842496  8.565936  8.565936
833   1 22.842496  8.565936 11.421248
834   1 22.842496  8.565936 14.276560
835   1 22.842496  8.565936 17.131872
836   1 22.842496  8.565936 19.987184
837   1 22.842496  8.565936 22.842496
838   1 22.842496  8.565936 25.697808
839   1 22.842496 11.421248  0.000000
840   1 22.842496 11.421248  2.855312
841   1 22.842496 11.421248  5.710624
842   1 22.842496 11.421248  8.565936
843   1 22.842496 11.421248 11.421248
844   1 22.842496 11.421248 14.276560
845   1 22.842496 11.421248 17.131872
846   1 22.842496 11.421248 19.987184
847   1 22.842496 11.421248 22.842496
848   1 22.842496 11.421248 25.697808
849   1 22.842496 14.276560  0.000000
850   1 22.842496 14.276560  2.855312
851   1 22.842496 14.276560  5.710624
852   1 22.842496 14.276560  8.565936
853   1 22.842496 14.276560 11.421248
854   1 22.842496 14.276560 14.276560
855   1 22.842496 14.276560 17.131872
856   1 22.842496 14.276560 19.987184
857   1 22.842496 14.276560 22.842496
858   1 22.842496 14.276560 25.697808
859   1 22.842496 17.131872  0.000000
860   1 22.842496 17.131872  2.855312
861   1 22.842496 17.131872  5.710624
862   1 22.842496 17.131872  8.565936
863   1 22.842496 17.131872 11.421248
864   1 22.842496 17.131872 14.276560
865   1 22.842496 17.131872 17.131872
866   1 22.842496 17.131872 19.987184
867   1 22.842496 17.131872 22.842496
868   1 22.842496 17.131872 25.697808
869   1 22.842496 19.987184  0.000000
870   1 22.842496 19.987184  2.855312
871   1 22.842496 19.987184  5.710624
872   1 22.842496 19.987184  8.565936
873   1 22.842496 19.987184 11.421248
874   1 22.842496 19.987184 14.276560
875   1 22.842496 19.987184 17.131872
876   1 22.842496 19.987184 19.987184
877   1 22.842496 19.987184 22.842496
878   1 22.842496 19.987184 25.697808
879   1 22.842496 22.842496  0.000000
880   1 22.842496 22.842496  2.855312
881   1 22.842496 22.842496  5.710624
882   1 22.842496 22.842496  8.565936
883   1 22.842496 22.842496 11.421248
884   1 22.842496 22.842496 14.276560
885   1 22.842496 22.842496 17.131872
886   1 22.842496 22.842496 19.987184
887   1 22.842496 22.842496 22.842496
888   1 22.842496 22.842496 25.697808
889   1 22.842496 25.697808  0.000000
890   1 22.842496 25.697808  2.855312
891   1 22.842496 25.697808  5.710624
892   1 22.842496 25.697808  8.565936
893   1 22.842496 25.697808 11.421248
894   1 22.842496 25.697808 14.276560
895   1 22.842496 25.697808 17.131872
896   1 22.842496 25.697808 19.987184
897   1 22.842496 25.697808 22.842496
898   1 22.842496 25.697808 25.697808
899   1 25.697808  0.000000  0.000000
900   1 25.697808  0.000000  2.855312
901   1 25.697808  0.000000  5.710624
902   1 25.697808  0.000000  8.565936
903   1 25.697808  0.000000 11.421248
904   1 25.697808  0.000000 14.276560
905   1 25.697808  0.000000 17.131872
906   1 25.697808  0.000000 19.987184
907   1 25.697808  0.000000 22.842496
908   1 25.697808  0.000000 25.697808
909   1 25.697808  2.855312  0.000000
910   1 25.697808  2.855312  2.855312
911   1 25.697808  2.855312  5.710624
912   1 25.697808  2.855312  8.565936
913   1 25.697808  2.855312 11.421248
914   1 25.697808  2.855312 14.276560
915   1 25.697808  2.855312 17.131872
916   1 25.697808  2.855312 19.987184
917   1 25.697808  2.855312 22.842496
918   1 25.697808  2.855312 25.697808
919   1 25.697808  5.710624  0.000000
920   1 25.697808  5.710624  2.855312
921   1 25.697808  5.710624  5.710624
922   1 25.697808  5.710624  8.565936
923   1 25.697808  5.710624 11.421248
924   1 25.697808  5.710624 14.276560
925   1 25.697808  5.710624 17.131872
926   1 25.697808  5.710624 19.987184
927   1 25.697808  5.710624 22.842496
928   1 25.697808  5.710624 25.697808
929   1 25.697808  8.565936  0.000000
930   1 25.697808  8.565936  2.855312
931   1 25.697808  8.565936  5.710624
932   1 25.697808  8.565936  8.565936
933   1 25.697808  8.565936 11.421248
934   1 25.697808  8.565936 14.276560
935   1 25.697808  8.565936 17.131872
936   1 25.697808  8.565936 19.987184
937   1 25.697808  8.565936 22.842496
938   1 25.697808  8.565936 25.697808
939   1 25.697808 11.421248  0.000000
940   1 25.697808 11.421248  2.855312
941   1 25.697808 11.421248  5.710624
942   1 25.697808 11.421248  8.565936
943   1 25.697808 11.421248 11.421248
944   1 25.697808 11.421248 14.276560
945   1 25.697808 11.421248 17.131872
946   1 25.697808 11.421248 19.987184
947   1 25.697808 11.421248 22.842496
948   1 25.697808 11.421248 25.697808
949   1 25.697808 14.276560  0.000000
950   1 25.697808 14.276560  2.855312
951   1 25.697808 14.276560  5.710624
952   1 25.697808 14.276560  8.565936
953   1 25.697808 14.276560 11.421248
954   1 25.697808 14.276560 14.276560
955   1 25.697808 14.276560 17.131872
956   1 25.697808 14.276560 19.987184
957   1 25.697808 14.276560 22.842496
958   1 25.697808 14.276560 25.697808
959   1 25.697808 17.131872  0.000000
960   1 25.697808 17.131872  2.855312
961   1 25.697808 17.131872  5.710624
962   1 25.697808 17.131872  8.565936
963   1 25.697808 17.131872 11.421248
964   1 25.697808 17.131872 14.276560
965   1 25.697808 17.131872 17.131872
966   1 25.697808 17.131872 19.987184
967   1 25.697808 17.131872 22.842496
968   1 25.697808 17.131872 25.697808
969   1 25.697808 19.987184  0.000000
970   1 25.697808 19.987184  2.855312
971   1 25.697808 19.987184  5.710624
972   1 25.697808 19.987184  8.565936
973   1 25.697808 19.987184 11.421248
974   1 25.697808 19.987184 14.276560
975   1 25.697808 19.987184 17.131872
976   1 25.697808 19.987184 19.987184
977   1 25.697808 19.987184 22.842496
978   1 25.697808 19.987184 25.697808
979   1 25.697808 22.842496  0.000000
980   1 25.697808 22.842496  2.855312
981   1 25.697808 22.842496  5.710624
982   1 25.697808 22.842496  8.565936
983   1 25.697808 22.842496 11.421248
984   1 25.697808 22.842496 14.276560
985   1 25.697808 22.842496 17.131872
986   1 25.697808 22.842496 19.987184
987   1 25.697808 22.842496 22.842496
988   1 25.697808 22.842496 25.697808
989   1 25.697808 25.697808  0.000000
990   1 25.697808 25.697808  2.855312
991   1 25.697808 25.697808  5.710624
992   1 25.697808 25.697808  8.565936
993   1 25.697808 25.697808 11.421248
994   1 25.697808 25.697808 14.276560
995   1 25.697808 25.697808 17.131872
996   1 25.697808 25.697808 19.987184
997   1 25.697808 25.697808 22.842496
998   1 25.697808 25.697808 25.697808
999   1  1.427656  1.427656  1.427656
1000  1  1.427656  1.427656  4.282968
1001  1  1.427656  1.427656  7.138280
1002  1  1.427656  1.427656  9.993592
1003  1  1.427656  1.427656 12.848904
1004  1  1.427656  1.427656 15.704216
1005  1  1.427656  1.427656 18.559528
1006  1  1.427656  1.427656 21.414840
1007  1  1.427656  1.427656 24.270152
1008  1  1.427656  1.427656 27.125464
1009  1  1.427656  4.282968  1.427656
1010  1  1.427656  4.282968  4.282968
1011  1  1.427656  4.282968  7.138280
1012  1  1.427656  4.282968  9.993592
1013  1  1.427656  4.282968 12.848904
1014  1  1.427656  4.282968 15.704216
1015  1  1.427656  4.282968 18.559528
1016  1  1.427656  4.282968 21.414840
1017  1  1.427656  4.282968 24.270152
1018  1  1.427656  4.282968 27.125464
1019  1  1.427656  7.138280  1.427656
1020  1  1.427656  7.138280  4.282968
1021  1  1.427656  7.138280  7.138280
1022  1  1.427656  7.138280  9.993592
1023  1  1.427656  7.138280 12.848904
1024  1  1.427656  7.138280 15.704216
1025  1  1.427656  7.138280 18.559528
1026  1  1.427656  7.138280 21.414840
1027  1  1.427656  7.138280 24.270152
1028  1  1.427656  7.138280 27.125464
1029  1  1.427656  9.993592  1.427656
1030  1  1.427656  9.993592  4.282968
1031  1  1.427656  9.993592  7.138280
1032  1  1.427656  9.993592  9.993592
1033  1  1.427656  9.993592 12.848904
1034  1  1.427656  9.993592 15.704216
1035  1  1.427656  9.993592 18.559528
1036  1  1.427656  9.993592 21.414840
1037  1  1.427656  9.993592 24.270152
1038  1  1.427656  9.993592 27.125464
1039  1  1.427656 12.848904  1.427656
1040  1  1.427656 12.848904  4.282968
1041  1  1.427656 12.848904  7.138280
1042  1  1.427656 12.848904  9.993592
1043  1  1.427656 12.848904 12.848904
1044  1  1.427656 12.848904 15.704216
1045  1  1.427656 12.848904 18.559528
1046  1  1.427656 12.848904 21.414840
1047  1  1.427656 12.848904 24.270152
1048  1  1.427656 12.848904 27.125464
1049  1  1.427656 15.704216  1.427656
1050  1  1.427656 15.704216  4.282968
1051  1  1.427656 15.704216  7.138280
1052  1  1.427656 15.704216  9.993592
1053  1  1.427656 15.704216 12.848904
1054  1  1.427656 15.704216 15.704216
1055  1  1.427656 15.704216 18.559528
1056  1  1.427656 15.704216 21.414840
1057  1  1.427656 15.704216 24.270152
1058  1  1.427656 15.704216 27.125464
1059  1  1.427656 18.559528  1.427656
1060  1  1.427656 18.559528  4.282968
1061  1  1.427656 18.559528  7.138280
1062  1  1.427656 18.559528  9.993592
1063  1  1.427656 18.559528 12.848904
1064  1  1.427656 18.559528 15.704216
1065  1  1.427656 18.559528 18.559528
1066  1  1.427656 18.559528 21.414840
1067  1  1.427656 18.559528 24.270152
1068  1  1.427656 18.559528 27.125464
1069  1  1.427656 21.414840  1.427656
1070  1  1.427656 21.414840  4.282968
1071  1  1.427656 21.414840  7.138280
1072  1  1.427656 21.414840  9.993592
1073  1  1.427656 21.414840 12.848904
1074  1  1.427656 21.414840 15.704216
1075  1  1.427656 21.414840 18.559528
1076  1  1.427656 21.414840 21.414840
1077  1  1.427656 21.414840 24.270152
1078  1  1.427656 21.414840 27.125464
1079  1  1.427656 24.270152  1.427656
1080  1  1.427656 24.270152  4.282968
1081  1  1.427656 24.270152  7.138280
1082  1  1.427656 24.270152  9.993592
1083  1  1.427656 24.270152 12.848904
1084  1  1.427656 24.270152 15.704216
1085  1  1.427656 24.270152 18.559528
1086  1  1.427656 24.270152 21.414840
1087  1  1.427656 24.270152 24.270152
1088  1  1.427656 24.270152 27.125464
1089  1  1.427656 27.125464  1.427656
1090  1  1.427656 27.125464  4.282968
1091  1  1.427656 27.125464  7.138280
1092  1  1.427656 27.125464  9.993592
1093  1  1.427656 27.125464 12.848904
1094  1  1.427656 27.125464 15.704216
1095  1  1.427656 27.125464 18.559528
1096  1  1.427656 27.125464 21.414840
1097  1  1.427656 27.125464 24.270152
1098  1  1.427656 27.125464 27.125464
1099  1  4.282968  1.427656  1.427656
1100  1  4.282968  1.427656  4.282968
1101  1  4.282968  1.427656  7.138280
1102  1  4.282968  1.427656  9.993592
1103  1  4.282968  1.427656 12.848904
1104  1  4.282968  1.427656 15.704216
1105  1  4.282968  1.427656 18.559528
1106  1  4.282968  1.427656 21.414840
1107  1  4.282968  1.427656 24.270152
1108  1  4.282968  1.427656 27.125464
1109  1  4.282968  4.282968  1.427656
1110  1  4.282968  4.282968  4.282968
1111  1  4.282968  4.282968  7.138280
1112  1  4.282968  4.282968  9.993592
1113  1  4.282968  4.282968 12.848904
1114  1  4.282968  4.282968 15.704216
1115  1  4.282968  4.282968 18.559528
1116  1  4.282968  4.282968 21.414840
1117  1  4.282968  4.282968 24.270152
1118  1  4.282968  4.282968 27.125464
1119  1  4.282968  7.138280  1.427656
1120  1  4.282968  7.138280  4.282968
1121  1  4.282968  7.138280  7.138280
1122  1  4.282968  7.138280  9.993592
1123  1  4.282968  7.138280 12.848904
1124  1  4.282968  7.138280 15.704216
1125  1  4.282968  7.138280 18.559528
1126  1  4.282968  7.138280 21.414840
1127  1  4.282968  7.138280 24.270152
1128  1  4.282968  7.138280 27.125464
1129  1  4.282968  9.993592  1.427656
1130  1  4.282968  9.993592  4.282968
1131  1  4.282968  9.993592  7.138280
1132  1  4.282968  9.993592  9.993592
1133  1  4.282968  9.993592 12.848904
1134  1  4.282968  9.993592 15.704216
1135  1  4.282968  9.993592 18.559528
1136  1  4.282968  9.993592 21.414840
1137  1  4.282968  9.993592 24.270152
1138  1  4.282968  9.993592 27.125464
1139  1  4.282968 12.848904  1.427656
1140  1  4.282968 12.848904  4.282968
1141  1  4.282968 12.848904  7.138280
1142  1  4.282968 12.848904  9.993592
1143  1  4.282968 12.848904 12.848904
1144  1  4.282968 12.848904 15.704216
1145  1  4.282968 12.848904 18.559528
1146  1  4.282968 12.848904 21.414840
1147  1  4.282968 12.848904 24.270152
1148  1  4.282968 12.848904 27.125464
1149  1  4.282968 15.704216  1.427656
1150  1  4.282968 15.704216  4.282968
1151  1  4.282968 15.704216  7.138280
1152  1  4.282968 15.704216  9.993592
1153  1  4.282968 15.704216 12.848904
1154  1  4.282968 15.704216 15.704216
1155  1  4.282968 15.704216 18.559528
1156  1  4.282968 15.704216 21.414840
1157  1  4.282968 15.704216 24.270152
1158  1  4.282968 15.704216 27.125464
1159  1  4.282968 18.559528  1.427656
1160  1  4.282968 18.559528  4.282968
1161  1  4.282968 18.559528  7.138280
1162  1  4.282968 18.559528  9.993592
1163  1  4.282968 18.559528 12.848904
1164  1  4.282968 18.559528 15.704216
1165  1  4.282968 18.559528 18.559528
1166  1  4.282968 18.559528 21.414840
1167  1  4.282968 18.559528 24.270152
1168  1  4.282968 18.559528 27.125464
1169  1  4.282968 21.414840  1.427656
1170  1  4.282968 21.414840  4.282968
1171  1  4.282968 21.414840  7.138280
1172  1  4.282968 21.414840  9.993592
1173  1  4.282968 21.414840 12.848904
1174  1  4.282968 21.414840 15.704216
1175  1  4.282968 21.414840 18.559528
1176  1  4.282968 21.414840 21.414840
1177  1  4.282968 21.414840 24.270152
1178  1  4.282968 21.414840 27.125464
1179  1  4.282968 24.270152  1.427656
1180  1  4.282968 24.270152  4.282968
1181  1  4.282968 24.270152  7.138280
1182  1  4.282968 24.270152  9.993592
1183  1  4.282968 24.270152 12.848904
1184  1  4.282968 24.270152 15.704216
1185  1  4.282968 24.270152 18.559528
1186  1  4.282968 24.270152 21.414840
1187  1  4.282968 24.270152 24.270152
1188  1  4.282968 24.270152 27.125464
1189  1  4.282968 27.125464  1.427656
1190  1  4.282968 27.125464  4.282968
1191  1  4.282968 27.125464  7.138280
1192  1  4.282968 27.125464  9.993592
1193  1  4.282968 27.125464 12.848904
1194  1  4.282968 27.125464 15.704216
1195  1  4.282968 27.125464 18.559528
1196  1  4.282968 27.125464 21.414840
1197  1  4.282968 27.125464 24.270152
1198  1  4.282968 27.125464 27.125464
1199  1  7.138280  1.427656  1.427656
1200  1  7.138280  1.427656  4.282968
1201  1  7.138280  1.427656  7.138280
1202  1  7.138280  1.427656  9.993592
1203  1  7.138280  1.427656 12.848904
1204  1  7.138280  1.427656 15.704216
1205  1  7.138280  1.427656 18.559528
1206  1  7.138280  1.427656 21.414840
1207  1  7.138280  1.427656 24.270152
1208  1  7.138280  1.427656 27.125464
1209  1  7.138280  4.282968  1.427656
1210  1  7.138280  4.282968  4.282968
1211  1  7.138280  4.282968  7.138280
1212  1  7.138280  4.282968  9.993592
1213  1  7.138280  4.282968 12.848904
1214  1  7.138280  4.282968 15.704216
1215  1  7.138280  4.282968 18.559528
1216  1  7.138280  4.282968 21.414840
1217  1  7.138280  4.282968 24.270152
1218  1  7.138280  4.282968 27.125464
1219  1  7.138280  7.138280  1.427656
1220  1  7.138280  7.138280  4.282968
1221  1  7.138280  7.138280  7.138280
1222  1  7.138280  7.138280  9.993592
1223  1  7.138280  7.138280 12.848904
1224  1  7.138280  7.138280 15.704216
1225  1  7.138280  7.138280 18.559528
1226  1  7.138280  7.138280 21.414840
1227  1  7.138280  7.138280 24.270152
1228  1  7.138280  7.138280 27.125464
1229  1  7.138280  9.993592  1.427656
1230  1  7.138280  9.993592  4.282968
1231  1  7.138280  9.993592  7.138280
1232  1  7.138280  9.993592  9.993592
1233  1  7.138280  9.993592 12.848904
1234  1  7.138280  9.993592 15.704216
1235  1  7.138280  9.993592 18.559528
1236  1  7.138280  9.993592 21.414840
1237  1  7.138280  9.993592 24.270152
1238  1  7.138280  9.993592 27.125464
1239  1  7.138280 12.848904  1.427656
1240  1  7.138280 12.848904  4.282968
1241  1  7.138280 12.848904  7.138280
1242  1  7.138280 12.848904  9.993592
1243  1  7.138280 12.848904 12.848904
1244  1  7.138280 12.848904 15.704216
1245  1  7.138280 12.848904 18.559528
1246  1  7.138280 12.848904 21.414840
1247  1  7.138280 12.848904 24.270152
1248  1  7.138280 12.848904 27.125464
1249  1  7.138280 15.704216  1.427656
1250  1  7.138280 15.704216  4.282968
1251  1  7.138280 15.704216  7.138280
1252  1  7.138280 15.704216  9.993592
1253  1  7.138280 15.704216 12.848904
1254  1  7.138280 15.704216 15.704216
1255  1  7.138280 15.704216 18.559528
1256  1  7.138280 15.704216 21.414840
1257  1  7.138280 15.704216 24.270152
1258  1  7.138280 15.704216 27.125464
1259  1  7.138280 18.559528  1.427656
1260  1  7.138280 18.559528  4.282968
1261  1  7.138280 18.559528  7.138280
1262  1  7.138280 18.559528  9.993592
1263  1  7.138280 18.559528 12.848904
1264  1  7.138280 18.559528 15.704216
1265  1  7.138280 18.559528 18.559528
1266  1  7.138280 18.559528 21.414840
1267  1  7.138280 18.559528 24.270152
1268  1  7.138280 18.559528 27.125464
1269  1  7.138280 21.414840  1.427656
1270  1  7.138280 21.414840  4.282968
1271  1  7.138280 21.414840  7.138280
1272  1  7.138280 21.414840  9.993592
1273  1  7.138280 21.414840 12.848904
1274  1  7.138280 21.414840 15.704216
1275  1  7.138280 21.414840 18.559528
1276  1  7.138280 21.414840 21.414840
1277  1  7.138280 21.414840 24.270152
1278  1  7.138280 21.414840 27.125464
1279  1  7.138280 24.270152  1.427656
1280  1  7.138280 24.270152  4.282968
1281  1  7.138280 24.270152  7.138280
1282  1  7.138280 24.270152  9.993592
1283  1  7.138280 24.270152 12.848904
1284  1  7.138280 24.270152 15.704216
1285  1  7.138280 24.270152 18.559528
1286  1  7.138280 24.270152 21.414840
1287  1  7.138280 24.270152 24.270152
1288  1  7.138280 24.270152 27.125464
1289  1  7.138280 27.125464  1.427656
1290  1  7.138280 27.125464  4.282968
1291  1  7.138280 27.125464  7.138280
1292  1  7.138280 27.125464  9.993592
1293  1  7.138280 27.125464 12.848904
1294  1  7.138280 27.125464 15.704216
1295  1  7.138280 27.125464 18.559528
1296  1  7.138280 27.125464 21.414840
1297  1  7.138280 27.125464 24.270152
1298  1  7.138280 27.125464 27.125464
1299  1  9.993592  1.427656  1.427656
1300  1  9.993592  1.427656  4.282968
1301  1  9.993592  1.427656  7.138280
1302  1  9.993592  1.427656  9.993592
1303  1  9.993592  1.427656 12.848904
1304  1  9.993592  1.427656 15.704216
1305  1  9.993592  1.427656 18.559528
1306  1  9.993592  1.427656 21.414840
1307  1  9.993592  1.427656 24.270152
1308  1  9.993592  1.427656 27.125464
1309  1  9.993592  4.282968  1.427656
1310  1  9.993592  4.282968  4.282968
1311  1  9.993592  4.282968  7.138280
1312  1  9.993592  4.282968  9.993592
1313  1  9.993592  4.282968 12.848904
1314  1  9.993592  4.282968 15.704216
1315  1  9.993592  4.282968 18.559528
1316  1  9.993592  4.282968 21.414840
1317  1  9.993592  4.282968 24.270152
1318  1  9.993592  4.282968 27.125464
1319  1  9.993592  7.138280  1.427656
1320  1  9.993592  7.138280  4.282968
1321  1  9.993592  7.138280  7.138280
1322  1  9.993592  7.138280  9.993592
1323  1  9.993592  7.138280 12.848904
1324  1  9.993592  7.138280 15.704216
1325  1  9.993592  7.138280 18.559528
1326  1  9.993592  7.138280 21.414840
1327  1  9.993592  7.138280 24.270152
1328  1  9.993592  7.138280 27.125464
1329  1  9.993592  9.993592  1.427656
1330  1  9.993592  9.993592  4.282968
1331  1  9.993592  9.993592  7.138280
1332  1  9.993592  9.993592  9.993592
1333  1  9.993592  9.993592 12.848904
1334  1  9.993592  9.993592 15.704216
1335  1  9.993592  9.993592 18.559528
1336  1  9.993592  9.993592 21.414840
1337  1  9.993592  9.993592 24.270152
1338  1  9.993592  9.993592 27.125464
1339  1  9.993592 12.848904  1.427656
1340  1  9.993592 12.848904  4.282968
1341  1  9.993592 12.848904  7.138280
1342  1  9.993592 12.848904  9.993592
1343  1  9.993592 12.848904 12.848904
1344  1  9.993592 12.848904 15.704216
1345  1  9.993592 12.848904 18.559528
1346  1  9.993592 12.848904 21.414840
1347  1  9.993592 12.848904 24.270152
1348  1  9.993592 12.848904 27.125464
1349  1  9.993592 15.704216  1.427656
1350  1  9.993592 15.704216  4.282968
1351  1  9.993592 15.704216  7.138280
1352  1  9.993592 15.704216  9.993592
1353  1  9.993592 15.704216 12.848904
1354  1  9.993592 15.704216 15.704216
1355  1  9.993592 15.704216 18.559528
1356  1  9.993592 15.704216 21.414840
1357  1  9.993592 15.704216 24.270152
1358  1  9.993592 15.704216 27.125464
1359  1  9.993592 18.559528  1.427656
1360  1  9.993592 18.559528  4.282968
1361  1  9.993592 18.559528  7.138280
1362  1  9.993592 18.559528  9.993592
1363  1  9.993592 18.559528 12.848904
1364  1  9.993592 18.559528 15.704216
1365  1  9.993592 18.559528 18.559528
1366  1  9.993592 18.559528 21.414840
1367  1  9.993592 18.559528 24.270152
1368  1  9.993592 18.559528 27.125464
1369  1  9.993592 21.414840  1.427656
1370  1  9.993592 21.414840  4.282968
1371  1  9.993592 21.414840  7.138280
1372  1  9.993592 21.414840  9.993592
1373  1  9.993592 21.414840 12.848904
1374  1  9.993592 21.414840 15.704216
1375  1  9.993592 21.414840 18.559528
1376  1  9.993592 21.414840 21.414840
1377  1  9.993592 21.414840 24.270152
1378  1  9.993592 21.414840 27.125464
1379  1  9.993592 24.270152  1.427656
1380  1  9.993592 24.270152  4.282968
1381  1  9.993592 24.270152  7.138280
1382  1  9.993592 24.270152  9.993592
1383  1  9.993592 24.270152 12.848904
1384  1  9.993592 24.270152 15.704216
1385  1  9.993592 24.270152 18.559528
1386  1  9.993592 24.270152 21.414840
1387  1  9.993592 24.270152 24.270152
1388  1  9.993592 24.270152 27.125464
1389  1  9.993592 27.125464  1.427656
1390  1  9.993592 27.125464  4.282968
1391  1  9.993592 27.125464  7.138280
1392  1  9.993592 27.125464  9.993592
1393  1  9.993592 27.125464 12.848904
1394  1  9.993592 27.125464 15.704216
1395  1  9.993592 27.125464 18.559528
1396  1  9.993592 27.125464 21.414840
1397  1  9.993592 27.125464 24.270152
1398  1  9.993592 27.125464 27.125464
1399  1 12.848904  1.427656  1.427656
1400  1 12.848904  1.427656  4.282968
1401  1 12.848904  1.427656  7.138280
1402  1 12.848904  1.427656  9.993592
1403  1 12.848904  1.427656 12.848904
1404  1 12.848904  1.427656 15.704216
1405  1 12.848904  1.427656 18.559528
1406  1 12.848904  1.427656 21.414840
1407  1 12.848904  1.427656 24.270152
1408  1 12.848904  1.427656 27.125464
1409  1 12.848904  4.282968  1.427656
1410  1 12.848904  4.282968  4.282968
1411  1 12.848904  4.282968  7.138280
1412  1 12.848904  4.282968  9.993592
1413  1 12.848904  4.282968 12.848904
1414  1 12.848904  4.282968 15.704216
1415  1 12.848904  4.282968 18.559528
1416  1 12.848904  4.282968 21.414840
1417  1 12.848904  4.282968 24.270152
1418  1 12.848904  4.282968 27.125464
1419  1 12.848904  7.138280  1.427656
1420  1 12.848904  7.138280  4.282968
1421  1 12.848904  7.138280  7.138280
1422  1 12.848904  7.138280  9.993592
1423  1 12.848904  7.138280 12.848904
1424  1 12.848904  7.138280 15.704216
1425  1 12.848904  7.138280 18.559528
1426  1 12.848904  7.138280 21.414840
1427  1 12.848904  7.138280 24.270152
1428  1 12.848904  7.138280 27.125464
1429  1 12.848904  9.993592  1.427656
1430  1 12.848904  9.993592  4.282968
1431  1 12.848904  9.993592  7.138280
1432  1 12.848904  9.993592  9.993592
1433  1 12.848904  9.993592 12.848904
1434  1 12.848904  9.993592 15.704216
1435  1 12.848904  9.993592 18.559528
1436  1 12.848904  9.993592 21.414840
1437  1 12.848904  9.993592 24.270152
1438  1 12.848904  9.993592 27.125464
1439  1 12.848904 12.848904  1.427656
1440  1 12.848904 12.848904  4.282968
1441  1 12.848904 12.848904  7.138280
1442  1 12.848904 12.848904  9.993592
1443  1 12.848904 12.848904 12.848904
1444  1 12.848904 12.848904 15.704216
1445  1 12.848904 12.848904 18.559528
1446  1 12.848904 12.848904 21.414840
1447  1 12.848904 12.848904 24.270152
1448  1 12.848904 12.848904 27.125464
1449  1 12.848904 15.704216  1.427656
1450  1 12.848904 15.704216  4.282968
1451  1 12.848904 15.704216  7.138280
1452  1 12.848904 15.704216  9.993592
1453  1 12.848904 15.704216 12.848904
1454  1 12.848904 15.704216 15.704216
1455  1 12.848904 15.704216 18.559528
1456  1 12.848904 15.704216 21.414840
1457  1 12.848904 15.704216 24.270152
1458  1 12.848904 15.704216 27.125464
1459  1 12.848904 18.559528  1.427656
1460  1 12.848904 18.559528  4.282968
1461  1 12.848904 18.559528  7.138280
1462  1 12.848904 18.559528  9.993592
1463  1 12.848904 18.559528 12.848904
1464  1 12.848904 18.559528 15.704216
1465  1 12.848904 18.559528 18.559528
1466  1 12.848904 18.559528 21.414840
1467  1 12.848904 18.559528 24.270152
1468  1 12.848904 18.559528 27.125464
1469  1 12.848904 21.414840  1.427656
1470  1 12.848904 21.414840  4.282968
1471  1 12.848904 21.414840  7.138280
1472  1 12.848904 21.414840  9.993592
1473  1 12.848904 21.414840 12.848904
1474  1 12.848904 21.414840 15.704216
1475  1 12.848904 21.414840 18.559528
1476  1 12.848904 21.414840 21.414840
1477  1 12.848904 21.414840 24.270152
1478  1 12.848904 21.414840 27.125464
1479  1 12.848904 24.270152  1.427656
1480  1 12.848904 24.270152  4.282968
1481  1 12.848904 24.270152  7.138280
1482  1 12.848904 24.270152  9.993592
1483  1 12.848904 24.270152 12.848904
1484  1 12.848904 24.270152 15.704216
1485  1 12.848904 24.270152 18.559528
1486  1 12.848904 24.270152 21.414840
1487  1 12.848904 24.270152 24.270152
1488  1 12.848904 24.270152 27.125464
1489  1 12.848904 27.125464  1.427656
1490  1 12.848904 27.125464  4.282968
1491  1 12.848904 27.125464  7.138280
1492  1 12.848904 27.125464  9.993592
1493  1 12.848904 27.125464 12.848904
1494  1 12.848904 27.125464 15.704216
1495  1 12.848904 27.125464 18.559528
1496  1 12.848904 27.125464 21.414840
1497  1 12.848904 27.125464 24.270152
1498  1 12.848904 27.125464 27.125464
1499  1 15.704216  1.427656  1.427656
1500  1 15.704216  1.427656  4.282968
1501  1 15.704216  1.427656  7.138280
1502  1 15.704216  1.427656  9.993592
1503  1 15.704216  1.427656 12.848904
1504  1 15.704216  1.427656 15.704216
1505  1 15.704216  1.427656 18.559528
1506  1 15.704216  1.427656 21.414840
1507  1 15.704216  1.427656 24.270152
1508  1 15.704216  1.427656 27.125464
1509  1 15.704216  4.282968  1.427656
1510  1 15.704216  4.282968  4.282968
1511  1 15.704216  4.282968  7.138280
1512  1 15.704216  4.282968  9.993592
1513  1 15.704216  4.282968 12.848904
1514  1 15.704216  4.282968 15.704216
1515  1 15.704216  4.282968 18.559528
1516  1 15.704216  4.282968 21.414840
1517  1 15.704216  4.282968 24.270152
1518  1 15.704216  4.282968 27.125464
1519  1 15.704216  7.138280  1.427656
1520  1 15.704216  7.138280  4.282968
1521  1 15.704216  7.138280  7.138280
1522  1 15.704216  7.138280  9.993592
1523  1 15.704216  7.138280 12.848904
1524  1 15.704216  7.138280 15.704216
1525  1 15.704216  7.138280 18.559528
1526  1 15.704216  7.138280 21.414840
1527  1 15.704216  7.138280 24.270152
1528  1 15.704216  7.138280 27.125464
1529  1 15.704216  9.993592  1.427656
1530  1 15.704216  9.993592  4.282968
1531  1 15.704216  9.993592  7.138280
1532  1 15.704216  9.993592  9.993592
1533  1 15.704216  9.993592 12.848904
1534  1 15.704216  9.993592 15.704216
1535  1 15.704216  9.993592 18.559528
1536  1 15.704216  9.993592 21.414840
1537  1 15.704216  9.993592 24.270152
1538  1 15.704216  9.993592 27.125464
1539  1 15.704216 12.848904  1.427656
1540  1 15.704216 12.848904  4.282968
1541  1 15.704216 12.848904  7.138280
1542  1 15.704216 12.848904  9.993592
1543  1 15.704216 12.848904 12.848904
1544  1 15.704216 12.848904 15.704216
1545  1 15.704216 12.848904 18.559528
1546  1 15.704216 12.848904 21.414840
1547  1 15.704216 12.848904 24.270152
1548  1 15.704216 12.848904 27.125464
1549  1 15.704216 15.704216  1.427656
1550  1 15.704216 15.704216  4.282968
1551  1 15.704216 15.704216  7.138280
1552  1 15.704216 15.704216  9.993592
1553  1 15.704216 15.704216 12.848904
1554  1 15.704216 15.704216 15.704216
1555  1 15.704216 15.704216 18.559528
1556  1 15.704216 15.704216 21.414840
1557  1 15.704216 15.704216 24.270152
1558  1 15.704216 15.704216 27.125464
1559  1 15.704216 18.559528  1.427656
1560  1 15.704216 18.559528  4.282968
1561  1 15.704216 18.559528  7.138280
1562  1 15.704216 18.559528  9.993592
1563  1 15.704216 18.559528 12.848904
1564  1 15.704216 18.559528 15.704216
1565  1 15.704216 18.559528 18.559528
1566  1 15.704216 18.559528 21.414840
1567  1 15.704216 18.559528 24.270152
1568  1 15.704216 18.559528 27.125464
1569  1 15.704216 21.414840  1.427656
1570  1 15.704216 21.414840  4.282968
1571  1 15.704216 21.414840  7.138280
1572  1 15.704216 21.414840  9.993592
1573  1 15.704216 21.414840 12.848904
1574  1 15.704216 21.414840 15.704216
1575  1 15.704216 21.414840 18.559528
1576  1 15.704216 21.414840 21.414840
1577  1 15.704216 21.414840 24.270152
1578  1 15.704216 21.414840 27.125464
1579  1 15.704216 24.270152  1.427656
1580  1 15.704216 24.270152  4.282968
1581  1 15.704216 24.270152  7.138280
1582  1 15.704216 24.270152  9.993592
1583  1 15.704216 24.270152 12.848904
1584  1 15.704216 24.270152 15.704216
1585  1 15.704216 24.270152 18.559528
1586  1 15.704216 24.270152 21.414840
1587  1 15.704216 24.270152 24.270152
1588  1 15.704216 24.270152 27.125464
1589  1 15.704216 27.125464  1.427656
1590  1 15.704216 27.125464  4.282968
1591  1 15.704216 27.125464  7.138280
1592  1 15.704216 27.125464  9.993592
1593  1 15.704216 27.125464 12.848904
1594  1 15.704216 27.125464 15.704216
1595  1 15.704216 27.125464 18.559528
1596  1 15.704216 27.125464 21.414840
1597  1 15.704216 27.125464 24.270152
1598  1 15.704216 27.125464 27.125464
1599  1 18.559528  1.427656  1.427656
1600  1 18.559528  1.427656  4.282968
1601  1 18.559528  1.427656  7.138280
1602  1 18.559528  1.427656  9.993592
1603  1 18.559528  1.427656 12.848904
1604  1 18.559528  1.427656 15.704216
1605  1 18.559528  1.427656 18.559528
1606  1 18.559528  1.427656 21.414840
1607  1 18.559528  1.427656 24.270152
1608  1 18.559528  1.427656 27.125464
1609  1 18.559528  4.282968  1.427656
1610  1 18.559528  4.282968  4.282968
1611  1 18.559528  4.282968  7.138280
1612  1 18.559528  4.282968  9.993592
1613  1 18.559528  4.282968 12.848904
1614  1 18.559528  4.282968 15.704216
1615  1 18.559528  4.282968 18.559528
1616  1 18.559528  4.282968 21.414840
1617  1 18.559528  4.282968 24.270152
1618  1 18.559528  4.282968 27.125464
1619  1 18.559528  7.138280  1.427656
1620  1 18.559528  7.138280  4.282968
1621  1 18.559528  7.138280  7.138280
1622  1 18.559528  7.138280  9.993592
1623  1 18.559528  7.138280 12.848904
1624  1 18.559528  7.138280 15.704216
1625  1 18.559528  7.138280 18.559528
1626  1 18.559528  7.138280 21.414840
1627  1 18.559528  7.138280 24.270152
1628  1 18.559528  7.138280 27.125464
1629  1 18.559528  9.993592  1.427656
1630  1 18.559528  9.993592  4.282968
1631  1 18.559528  9.993592  7.138280
1632  1 18.559528  9.993592  9.993592
1633  1 18.559528  9.993592 12.848904
1634  1 18.559528  9.993592 15.704216
1635  1 18.559528  9.993592 18.559528
1636  1 18.559528  9.993592 21.414840
1637  1 18.559528  9.993592 24.270152
1638  1 18.559528  9.993592 27.125464
1639  1 18.559528 12.848904  1.427656
1640  1 18.559528 12.848904  4.282968
1641  1 18.559528 12.848904  7.138280
1642  1 18.559528 12.848904  9.993592
1643  1 18.559528 12.848904 12.848904
1644  1 18.559528 12.848904 15.704216
1645  1 18.559528 12.848904 18.559528
1646  1 18.559528 12.848904 21.414840
1647  1 18.559528 12.848904 24.270152
1648  1 18.559528 12.848904 27.125464
1649  1 18.559528 15.704216  1.427656
1650  1 18.559528 15.704216  4.282968
1651  1 18.559528 15.704216  7.138280
1652  1 18.559528 15.704216  9.993592
1653  1 18.559528 15.704216 12.848904
1654  1 18.559528 15.704216 15.704216
1655  1 18.559528 15.704216 18.559528
1656  1 18.559528 15.704216 21.414840
1657  1 18.559528 15.704216 24.270152
1658  1 18.559528 15.704216 27.125464
1659  1 18.559528 18.559528  1.427656
1660  1 18.559528 18.559528  4.282968
1661  1 18.559528 18.559528  7.138280
1662  1 18.559528 18.559528  9.993592
1663  1 18.559528 18.559528 12.848904
1664  1 18.559528 18.559528 15.704216
1665  1 18.559528 18.559528 18.559528
1666  1 18.559528 18.559528 21.414840
1667  1 18.559528 18.559528 24.270152
1668  1 18.559528 18.559528 27.125464
1669  1 18.559528 21.414840  1.427656
1670  1 18.559528 21.414840  4.282968
1671  1 18.559528 21.414840  7.138280
1672  1 18.559528 21.414840  9.993592
1673  1 18.559528 21.414840 12.848904
1674  1 18.559528 21.414840 15.704216
1675  1 18.559528 21.414840 18.559528
1676  1 18.559528 21.414840 21.414840
1677  1 18.559528 21.414840 24.270152
1678  1 18.559528 21.414840 27.125464
1679  1 18.559528 24.270152  1.427656
1680  1 18.559528 24.270152  4.282968
1681  1 18.559528 24.270152  7.138280
1682  1 18.559528 24.270152  9.993592
1683  1 18.559528 24.270152 12.848904
1684  1 18.559528 24.270152 15.704216
1685  1 18.559528 24.270152 18.559528
1686  1 18.559528 24.270152 21.414840
1687  1 18.559528 24.270152 24.270152
1688  1 18.559528 24.270152 27.125464
1689  1 18.559528 27.125464  1.427656
1690  1 18.559528 27.125464  4.282968
1691  1 18.559528 27.125464  7.138280
1692  1 18.559528 27.125464  9.993592
1693  1 18.559528 27.125464 12.848904
1694  1 18.559528 27.125464 15.704216
1695  1 18.559528 27.125464 18.559528
1696  1 18.559528 27.125464 21.414840
1697  1 18.559528 27.125464 24.270152
1698  1 18.559528 27.125464 27.125464
1699  1 21.414840  1.427656  1.427656
1700  1 21.414840  1.427656  4.282968
1701  1 21.414840  1.427656  7.138280
1702  1 21.414840  1.427656  9.993592
1703  1 21.414840  1.427656 12.848904
1704  1 21.414840  1.427656 15.704216
1705  1 21.414840  1.427656 18.559528
1706  1 21.414840  1.427656 21.414840
1707  1 21.414840  1.427656 24.270152
1708  1 21.414840  1.427656 27.125464
1709  1 21.414840  4.282968  1.427656
1710  1 21.414840  4.282968  4.282968
1711  1 21.414840  4.282968  7.138280
1712  1 21.414840  4.282968  9.993592
1713  1 21.414840  4.282968 12.848904
1714  1 21.414840  4.282968 15.704216
1715  1 21.414840  4.282968 18.559528
1716  1 21.414840  4.282968 21.414840
1717  1 21.414840  4.282968 24.270152
1718  1 21.414840  4.282968 27.125464
1719  1 21.414840  7.138280  1.427656
1720  1 21.414840  7.138280  4.282968
1721  1 21.414840  7.138280  7.138280
1722  1 21.414840  7.138280  9.993592
1723  1 21.414840  7.138280 12.848904
1724  1 21.414840  7.138280 15.704216
1725  1 21.414840  7.138280 18.559528
1726  1 21.414840  7.138280 21.414840
1727  1 21.414840  7.138280 24.270152
1728  1 21.414840  7.138280 27.125464
1729  1 21.414840  9.993592  1.427656
1730  1 21.414840  9.993592  4.282968
1731  1 21.414840  9.993592  7.138280
1732  1 21.414840  9.993592  9.993592
1733  1 21.414840  9.993592 12.848904
1734  1 21.414840  9.993592 15.704216
1735  1 21.414840  9.993592 18.559528
1736  1 21.414840  9.993592 21.414840
1737  1 21.414840  9.993592 24.270152
1738  1 21.414840  9.993592 27.125464
1739  1 21.414840 12.848904  1.427656
1740  1 21.414840 12.848904  4.282968
1741  1 21.414840 12.848904  7.138280
1742  1 21.414840 12.848904  9.993592
1743  1 21.414840 12.848904 12.848904
1744  1 21.414840 12.848904 15.704216
1745  1 21.414840 12.848904 18.559528
1746  1 21.414840 12.848904 21.414840
1747  1 21.414840 12.848904 24.270152
1748  1 21.414840 12.848904 27.125464
1749  1 21.414840 15.704216  1.427656
1750  1 21.414840 15.704216  4.282968
1751  1 21.414840 15.704216  7.138280
1752  1 21.414840 15.704216  9.993592
1753  1 21.414840 15.704216 12.848904
1754  1 21.414840 15.704216 15.704216
1755  1 21.414840 15.704216 18.559528
1756  1 21.414840 15.704216 21.414840
1757  1 21.414840 15.704216 24.270152
1758  1 21.414840 15.704216 27.125464
1759  1 21.414840 18.559528  1.427656
1760  1 21.414840 18.559528  4.282968
1761  1 21.414840 18.559528  7.138280
1762  1 21.414840 18.559528  9.993592
1763  1 21.414840 18.559528 12.848904
1764  1 21.414840 18.559528 15.704216
1765  1 21.414840 18.559528 18.559528
1766  1 21.414840 18.559528 21.414840
1767  1 21.414840 18.559528 24.270152
1768  1 21.414840 18.559528 27.125464
1769  1 21.414840 21.414840  1.427656
1770  1 21.414840 21.414840  4.282968
1771  1 21.414840 21.414840  7.138280
1772  1 21.414840 21.414840  9.993592
1773  1 21.414840 21.414840 12.848904
1774  1 21.414840 21.414840 15.704216
1775  1 21.414840 21.414840 18.559528
1776  1 21.414840 21.414840 21.414840
1777  1 21.414840 21.414840 24.270152
1778  1 21.414840 21.414840 27.125464
1779  1 21.414840 24.270152  1.427656
1780  1 21.414840 24.270152  4.282968
1781  1 21.414840 24.270152  7.138280
1782  1 21.414840 24.270152  9.993592
1783  1 21.414840 24.270152 12.848904
1784  1 21.414840 24.270152 15.704216
1785  1 21.414840 24.270152 18.559528
1786  1 21.414840 24.270152 21.414840
1787  1 21.414840 24.270152 24.270152
1788  1 21.414840 24.270152 27.125464
1789  1 21.414840 27.125464  1.427656
1790  1 21.414840 27.125464  4.282968
1791  1 21.414840 27.125464  7.138280
1792  1 21.414840 27.125464  9.993592
1793  1 21.414840 27.125464 12.848904
1794  1 21.414840 27.125464 15.704216
1795  1 21.414840 27.125464 18.559528
1796  1 21.414840 27.125464 21.414840
1797  1 21.414840 27.125464 24.270152
1798  1 21.414840 27.125464 27.125464
1799  1 24.270152  1.427656  1.427656
1800  1 24.270152  1.427656  4.282968
1801  1 24.270152  1.427656  7.138280
1802  1 24.270152  1.427656  9.993592
1803  1 24.270152  1.427656 12.848904
1804  1 24.270152  1.427656 15.704216
1805  1 24.270152  1.427656 18.559528
1806  1 24.270152  1.427656 21.414840
1807  1 24.270152  1.427656 24.270152
1808  1 24.270152  1.427656 27.125464
1809  1 24.270152  4.282968  1.427656
1810  1 24.270152  4.282968  4.282968
1811  1 24.270152  4.282968  7.138280
1812  1 24.270152  4.282968  9.993592
1813  1 24.270152  4.282968 12.848904
1814  1 24.270152  4.282968 15.704216
1815  1 24.270152  4.282968 18.559528
1816  1 24.270152  4.282968 21.414840
1817  1 24.270152  4.282968 24.270152
1818  1 24.270152  4.282968 27.125464
1819  1 24.270152  7.138280  1.427656
1820  1 24.270152  7.138280  4.282968
1821  1 24.270152  7.138280  7.138280
1822  1 24.270152  7.138280  9.993592
1823  1 24.270152  7.138280 12.848904
1824  1 24.270152  7.138280 15.704216
1825  1 24.270152  7.138280 18.559528
1826  1 24.270152  7.138280 21.414840
1827  1 24.270152  7.138280 24.270152
1828  1 24.270152  7.138280 27.125464
1829  1 24.270152  9.993592  1.427656
1830  1 24.270152  9.993592  4.282968
1831  1 24.270152  9.993592  7.138280
1832  1 24.270152  9.993592  9.993592
1833  1 24.270152  9.993592 12.848904
1834  1 24.270152  9.993592 15.704216
1835  1 24.270152  9.993592 18.559528
1836  1 24.270152  9.993592 21.414840
1837  1 24.270152  9.993592 24.270152
1838  1 24.270152  9.993592 27.125464
1839  1 24.270152 12.848904  1.427656
1840  1 24.270152 12.848904  4.282968
1841  1 24.270152 12.848904  7.138280
1842  1 24.270152 12.848904  9.993592
1843  1 24.270152 12.848904 12.848904
1844  1 24.270152 12.848904 15.704216
1845  1 24.270152 12.848904 18.559528
1846  1 24.270152 12.848904 21.414840
1847  1 24.270152 12.848904 24.270152
1848  1 24.270152 12.848904 27.125464
1849  1 24.270152 15.704216  1.427656
1850  1 24.270152 15.704216  4.282968
1851  1 24.270152 15.704216  7.138280
1852  1 24.270152 15.704216  9.993592
1853  1 24.270152 15.704216 12.848904
1854  1 24.270152 15.704216 15.704216
1855  1 24.270152 15.704216 18.559528
1856  1 24.270152 15.704216 21.414840
1857  1 24.270152 15.704216 24.270152
1858  1 24.270152 15.704216 27.125464
1859  1 24.270152 18.559528  1.427656
1860  1 24.270152 18.559528  4.282968
1861  1 24.270152 18.559528  7.138280
1862  1 24.270152 18.559528  9.993592
1863  1 24.270152 18.559528 12.848904
1864  1 24.270152 18.559528 15.704216
1865  1 24.270152 18.559528 18.559528
1866  1 24.270152 18.559528 21.414840
1867  1 24.270152 18.559528 24.270152
1868  1 24.270152 18.559528 27.125464
1869  1 24.270152 21.414840  1.427656
1870  1 24.270152 21.414840  4.282968
1871  1 24.270152 21.414840  7.138280
1872  1 24.270152 21.414840  9.993592
1873  1 24.270152 21.414840 12.848904
1874  1 24.270152 21.414840 15.704216
1875  1 24.270152 21.414840 18.559528
1876  1 24.270152 21.414840 21.414840
1877  1 24.270152 21.414840 24.270152
1878  1 24.270152 21.414840 27.125464
1879  1 24.270152 24.270152  1.427656
1880  1 24.270152 24.270152  4.282968
1881  1 24.270152 24.270152  7.138280
1882  1 24.270152 24.270152  9.993592
1883  1 24.270152 24.270152 12.848904
1884  1 24.270152 24.270152 15.704216
1885  1 24.270152 24.270152 18.559528
1886  1 24.270152 24.270152 21.414840
1887  1 24.270152 24.270152 24.270152
1888  1 24.270152 24.270152 27.125464
1889  1 24.270152 27.125464  1.427656
1890  1 24.270152 27.125464  4.282968
1891  1 24.270152 27.125464  7.138280
1892  1 24.270152 27.125464  9.993592
1893  1 24.270152 27.125464 12.848904
1894  1 24.270152 27.125464 15.704216
1895  1 24.270152 27.125464 18.559528
1896  1 24.270152 27.125464 21.414840
1897  1 24.270152 27.125464 24.270152
1898  1 24.270152 27.125464 27.125464
1899  1 27.125464  1.427656  1.427656
1900  1 27.125464  1.427656  4.282968
1901  1 27.125464  1.427656  7.138280
1902  1 27.125464  1.427656  9.993592
1903  1 27.125464  1.427656 12.848904
1904  1 27.125464  1.427656 15.704216
1905  1 27.125464  1.427656 18.559528
1906  1 27.125464  1.427656 21.414840
1907  1 27.125464  1.427656 24.270152
1908  1 27.125464  1.427656 27.125464
1909  1 27.125464  4.282968  1.427656
1910  1 27.125464  4.282968  4.282968
1911  1 27.125464  4.282968  7.138280
1912  1 27.125464  4.282968  9.993592
1913  1 27.125464  4.282968 12.848904
1914  1 27.125464  4.282968 15.704216
1915  1 27.125464  4.282968 18.559528
1916  1 27.125464  4.282968 21.414840
1917  1 27.125464  4.282968 24.270152
1918  1 27.125464  4.282968 27.125464
1919  1 27.125464  7.138280  1.427656
1920  1 27.125464  7.138280  4.282968
1921  1 27.125464  7.138280  7.138280
1922  1 27.125464  7.138280  9.993592
1923  1 27.125464  7.138280 12.848904
1924  1 27.125464  7.138280 15.704216
1925  1 27.125464  7.138280 18.559528
1926  1 27.125464  7.138280 21.414840
1927  1 27.125464  7.138280 24.270152
1928  1 27.125464  7.138280 27.125464
1929  1 27.125464  9.993592  1.427656
1930  1 27.125464  9.993592  4.282968
1931  1 27.125464  9.993592  7.138280
1932  1 27.125464  9.993592  9.993592
1933  1 27.125464  9.993592 12.848904
1934  1 27.125464  9.993592 15.704216
1935  1 27.125464  9.993592 18.559528
1936  1 27.125464  9.993592 21.414840
1937  1 27.125464  9.993592 24.270152
1938  1 27.125464  9.993592 27.125464
1939  1 27.125464 12.848904  1.427656
1940  1 27.125464 12.848904  4.282968
1941  1 27.125464 12.848904  7.138280
1942  1 27.125464 12.848904  9.993592
1943  1 27.125464 12.848904 12.848904
1944  1 27.125464 12.848904 15.704216
1945  1 27.125464 12.848904 18.559528
1946  1 27.125464 12.848904 21.414840
1947  1 27.125464 12.848904 24.270152
1948  1 27.125464 12.848904 27.125464
1949  1 27.125464 15.704216  1.427656
1950  1 27.125464 15.704216  4.282968
1951  1 27.125464 15.704216  7.138280
1952  1 27.125464 15.704216  9.993592
1953  1 27.125464 15.704216 12.848904
1954  1 27.125464 15.704216 15.704216
1955  1 27.125464 15.704216 18.559528
1956  1 27.125464 15.704216 21.414840
1957  1 27.125464 15.704216 24.270152
1958  1 27.125464 15.704216 27.125464
1959  1 27.125464 18.559528  1.427656
1960  1 27.125464 18.559528  4.282968
1961  1 27.125464 18.559528  7.138280
1962  1 27.125464 18.559528  9.993592
1963  1 27.125464 18.559528 12.848904
1964  1 27.125464 18.559528 15.704216
1965  1 27.125464 18.559528 18.559528
1966  1 27.125464 18.559528 21.414840
1967  1 27.125464 18.559528 24.270152
1968  1 27.125464 18.559528 27.125464
1969  1 27.125464 21.414840  1.427656
1970  1 27.125464 21.414840  4.282968
1971  1 27.125464 21.414840  7.138280
1972  1 27.125464 21.414840  9.993592
1973  1 27.125464 21.414840 12.848904
1974  1 27.125464 21.414840 15.704216
1975  1 27.125464 21.414840 18.559528
1976  1 27.125464 21.414840 21.414840
1977  1 27.125464 21.414840 24.270152
1978  1 27.125464 21.414840 27.125464
1979  1 27.125464 24.270152  1.427656
1980  1 27.125464 24.270152  4.282968
1981  1 27.125464 24.270152  7.138280
1982  1 27.125464 24.270152  9.993592
1983  1 27.125464 24.270152 12.848904
1984  1 27.125464 24.270152 15.704216
1985  1 27.125464 24.270152 18.559528
1986  1 27.125464 24.270152 21.414840
1987  1 27.125464 24.270152 24.270152
1988  1 27.125464 24.270152 27.125464
1989  1 27.125464 27.125464  1.427656
1990  1 27.125464 27.125464  4.282968
1991  1 27.125464 27.125464  7.138280
1992  1 27.125464 27.125464  9.993592
1993  1 27.125464 27.125464 12.848904
1994  1 27.125464 27.125464 15.704216
1995  1 27.125464 27.125464 18.559528
1996  1 27.125464 27.125464 21.414840
1997  1 27.125464 27.125464 24.270152
1998  1 27.125464 27.125464 27.125464

