Generated by pymatgen.io.lammps.data.LammpsData

16000  atoms

    2  atom types

0.000000 57.106240  xlo xhi
0.000000 57.106240  ylo yhi
0.000000 57.106240  zlo zhi
0.000000 0.000000 0.000000  xy xz yz

Masses

1  55.845
2  30.200

Atoms

1      1  0.000000  0.000000  2.855312
2      1  0.000000  0.000000  5.710624
3      1  0.000000  0.000000  8.565936
4      1  0.000000  0.000000 11.421248
5      1  0.000000  0.000000 14.276560
6      1  0.000000  0.000000 17.131872
7      1  0.000000  0.000000 19.987184
8      1  0.000000  0.000000 22.842496
9      1  0.000000  0.000000 25.697808
10     1  0.000000  0.000000 28.553120
11     1  0.000000  0.000000 31.408432
12     1  0.000000  0.000000 34.263744
13     1  0.000000  0.000000 37.119056
14     1  0.000000  0.000000 39.974368
15     1  0.000000  0.000000 42.829680
16     1  0.000000  0.000000 45.684992
17     1  0.000000  0.000000 48.540304
18     1  0.000000  0.000000 51.395616
19     1  0.000000  0.000000 54.250928
20     1  0.000000  2.855312  0.000000
21     1  0.000000  2.855312  2.855312
22     1  0.000000  2.855312  5.710624
23     1  0.000000  2.855312  8.565936
24     1  0.000000  2.855312 11.421248
25     1  0.000000  2.855312 14.276560
26     1  0.000000  2.855312 17.131872
27     1  0.000000  2.855312 19.987184
28     1  0.000000  2.855312 22.842496
29     1  0.000000  2.855312 25.697808
30     1  0.000000  2.855312 28.553120
31     1  0.000000  2.855312 31.408432
32     1  0.000000  2.855312 34.263744
33     1  0.000000  2.855312 37.119056
34     1  0.000000  2.855312 39.974368
35     1  0.000000  2.855312 42.829680
36     1  0.000000  2.855312 45.684992
37     1  0.000000  2.855312 48.540304
38     1  0.000000  2.855312 51.395616
39     1  0.000000  2.855312 54.250928
40     1  0.000000  5.710624  0.000000
41     1  0.000000  5.710624  2.855312
42     1  0.000000  5.710624  5.710624
43     1  0.000000  5.710624  8.565936
44     1  0.000000  5.710624 11.421248
45     1  0.000000  5.710624 14.276560
46     1  0.000000  5.710624 17.131872
47     1  0.000000  5.710624 19.987184
48     1  0.000000  5.710624 22.842496
49     1  0.000000  5.710624 25.697808
50     1  0.000000  5.710624 28.553120
51     1  0.000000  5.710624 31.408432
52     1  0.000000  5.710624 34.263744
53     1  0.000000  5.710624 37.119056
54     1  0.000000  5.710624 39.974368
55     1  0.000000  5.710624 42.829680
56     1  0.000000  5.710624 45.684992
57     1  0.000000  5.710624 48.540304
58     1  0.000000  5.710624 51.395616
59     1  0.000000  5.710624 54.250928
60     1  0.000000  8.565936  0.000000
61     1  0.000000  8.565936  2.855312
62     1  0.000000  8.565936  5.710624
63     1  0.000000  8.565936  8.565936
64     1  0.000000  8.565936 11.421248
65     1  0.000000  8.565936 14.276560
66     1  0.000000  8.565936 17.131872
67     1  0.000000  8.565936 19.987184
68     1  0.000000  8.565936 22.842496
69     1  0.000000  8.565936 25.697808
70     1  0.000000  8.565936 28.553120
71     1  0.000000  8.565936 31.408432
72     1  0.000000  8.565936 34.263744
73     1  0.000000  8.565936 37.119056
74     1  0.000000  8.565936 39.974368
75     1  0.000000  8.565936 42.829680
76     1  0.000000  8.565936 45.684992
77     1  0.000000  8.565936 48.540304
78     1  0.000000  8.565936 51.395616
79     1  0.000000  8.565936 54.250928
80     1  0.000000 11.421248  0.000000
81     1  0.000000 11.421248  2.855312
82     1  0.000000 11.421248  5.710624
83     1  0.000000 11.421248  8.565936
84     1  0.000000 11.421248 11.421248
85     1  0.000000 11.421248 14.276560
86     1  0.000000 11.421248 17.131872
87     1  0.000000 11.421248 19.987184
88     1  0.000000 11.421248 22.842496
89     1  0.000000 11.421248 25.697808
90     1  0.000000 11.421248 28.553120
91     1  0.000000 11.421248 31.408432
92     1  0.000000 11.421248 34.263744
93     1  0.000000 11.421248 37.119056
94     1  0.000000 11.421248 39.974368
95     1  0.000000 11.421248 42.829680
96     1  0.000000 11.421248 45.684992
97     1  0.000000 11.421248 48.540304
98     1  0.000000 11.421248 51.395616
99     1  0.000000 11.421248 54.250928
100    1  0.000000 14.276560  0.000000
101    1  0.000000 14.276560  2.855312
102    1  0.000000 14.276560  5.710624
103    1  0.000000 14.276560  8.565936
104    1  0.000000 14.276560 11.421248
105    1  0.000000 14.276560 14.276560
106    1  0.000000 14.276560 17.131872
107    1  0.000000 14.276560 19.987184
108    1  0.000000 14.276560 22.842496
109    1  0.000000 14.276560 25.697808
110    1  0.000000 14.276560 28.553120
111    1  0.000000 14.276560 31.408432
112    1  0.000000 14.276560 34.263744
113    1  0.000000 14.276560 37.119056
114    1  0.000000 14.276560 39.974368
115    1  0.000000 14.276560 42.829680
116    1  0.000000 14.276560 45.684992
117    1  0.000000 14.276560 48.540304
118    1  0.000000 14.276560 51.395616
119    1  0.000000 14.276560 54.250928
120    1  0.000000 17.131872  0.000000
121    1  0.000000 17.131872  2.855312
122    1  0.000000 17.131872  5.710624
123    1  0.000000 17.131872  8.565936
124    1  0.000000 17.131872 11.421248
125    1  0.000000 17.131872 14.276560
126    1  0.000000 17.131872 17.131872
127    1  0.000000 17.131872 19.987184
128    1  0.000000 17.131872 22.842496
129    1  0.000000 17.131872 25.697808
130    1  0.000000 17.131872 28.553120
131    1  0.000000 17.131872 31.408432
132    1  0.000000 17.131872 34.263744
133    1  0.000000 17.131872 37.119056
134    1  0.000000 17.131872 39.974368
135    1  0.000000 17.131872 42.829680
136    1  0.000000 17.131872 45.684992
137    1  0.000000 17.131872 48.540304
138    1  0.000000 17.131872 51.395616
139    1  0.000000 17.131872 54.250928
140    1  0.000000 19.987184  0.000000
141    1  0.000000 19.987184  2.855312
142    1  0.000000 19.987184  5.710624
143    1  0.000000 19.987184  8.565936
144    1  0.000000 19.987184 11.421248
145    1  0.000000 19.987184 14.276560
146    1  0.000000 19.987184 17.131872
147    1  0.000000 19.987184 19.987184
148    1  0.000000 19.987184 22.842496
149    1  0.000000 19.987184 25.697808
150    1  0.000000 19.987184 28.553120
151    1  0.000000 19.987184 31.408432
152    1  0.000000 19.987184 34.263744
153    1  0.000000 19.987184 37.119056
154    1  0.000000 19.987184 39.974368
155    1  0.000000 19.987184 42.829680
156    1  0.000000 19.987184 45.684992
157    1  0.000000 19.987184 48.540304
158    1  0.000000 19.987184 51.395616
159    1  0.000000 19.987184 54.250928
160    1  0.000000 22.842496  0.000000
161    1  0.000000 22.842496  2.855312
162    1  0.000000 22.842496  5.710624
163    1  0.000000 22.842496  8.565936
164    1  0.000000 22.842496 11.421248
165    1  0.000000 22.842496 14.276560
166    1  0.000000 22.842496 17.131872
167    1  0.000000 22.842496 19.987184
168    1  0.000000 22.842496 22.842496
169    1  0.000000 22.842496 25.697808
170    1  0.000000 22.842496 28.553120
171    1  0.000000 22.842496 31.408432
172    1  0.000000 22.842496 34.263744
173    1  0.000000 22.842496 37.119056
174    1  0.000000 22.842496 39.974368
175    1  0.000000 22.842496 42.829680
176    1  0.000000 22.842496 45.684992
177    1  0.000000 22.842496 48.540304
178    1  0.000000 22.842496 51.395616
179    1  0.000000 22.842496 54.250928
180    1  0.000000 25.697808  0.000000
181    1  0.000000 25.697808  2.855312
182    1  0.000000 25.697808  5.710624
183    1  0.000000 25.697808  8.565936
184    1  0.000000 25.697808 11.421248
185    1  0.000000 25.697808 14.276560
186    1  0.000000 25.697808 17.131872
187    1  0.000000 25.697808 19.987184
188    1  0.000000 25.697808 22.842496
189    1  0.000000 25.697808 25.697808
190    1  0.000000 25.697808 28.553120
191    1  0.000000 25.697808 31.408432
192    1  0.000000 25.697808 34.263744
193    1  0.000000 25.697808 37.119056
194    1  0.000000 25.697808 39.974368
195    1  0.000000 25.697808 42.829680
196    1  0.000000 25.697808 45.684992
197    1  0.000000 25.697808 48.540304
198    1  0.000000 25.697808 51.395616
199    1  0.000000 25.697808 54.250928
200    1  0.000000 28.553120  0.000000
201    1  0.000000 28.553120  2.855312
202    1  0.000000 28.553120  5.710624
203    1  0.000000 28.553120  8.565936
204    1  0.000000 28.553120 11.421248
205    1  0.000000 28.553120 14.276560
206    1  0.000000 28.553120 17.131872
207    1  0.000000 28.553120 19.987184
208    1  0.000000 28.553120 22.842496
209    1  0.000000 28.553120 25.697808
210    1  0.000000 28.553120 28.553120
211    1  0.000000 28.553120 31.408432
212    1  0.000000 28.553120 34.263744
213    1  0.000000 28.553120 37.119056
214    1  0.000000 28.553120 39.974368
215    1  0.000000 28.553120 42.829680
216    1  0.000000 28.553120 45.684992
217    1  0.000000 28.553120 48.540304
218    1  0.000000 28.553120 51.395616
219    1  0.000000 28.553120 54.250928
220    1  0.000000 31.408432  0.000000
221    1  0.000000 31.408432  2.855312
222    1  0.000000 31.408432  5.710624
223    1  0.000000 31.408432  8.565936
224    1  0.000000 31.408432 11.421248
225    1  0.000000 31.408432 14.276560
226    1  0.000000 31.408432 17.131872
227    1  0.000000 31.408432 19.987184
228    1  0.000000 31.408432 22.842496
229    1  0.000000 31.408432 25.697808
230    1  0.000000 31.408432 28.553120
231    1  0.000000 31.408432 31.408432
232    1  0.000000 31.408432 34.263744
233    1  0.000000 31.408432 37.119056
234    1  0.000000 31.408432 39.974368
235    1  0.000000 31.408432 42.829680
236    1  0.000000 31.408432 45.684992
237    1  0.000000 31.408432 48.540304
238    1  0.000000 31.408432 51.395616
239    1  0.000000 31.408432 54.250928
240    1  0.000000 34.263744  0.000000
241    1  0.000000 34.263744  2.855312
242    1  0.000000 34.263744  5.710624
243    1  0.000000 34.263744  8.565936
244    1  0.000000 34.263744 11.421248
245    1  0.000000 34.263744 14.276560
246    1  0.000000 34.263744 17.131872
247    1  0.000000 34.263744 19.987184
248    1  0.000000 34.263744 22.842496
249    1  0.000000 34.263744 25.697808
250    1  0.000000 34.263744 28.553120
251    1  0.000000 34.263744 31.408432
252    1  0.000000 34.263744 34.263744
253    1  0.000000 34.263744 37.119056
254    1  0.000000 34.263744 39.974368
255    1  0.000000 34.263744 42.829680
256    1  0.000000 34.263744 45.684992
257    1  0.000000 34.263744 48.540304
258    1  0.000000 34.263744 51.395616
259    1  0.000000 34.263744 54.250928
260    1  0.000000 37.119056  0.000000
261    1  0.000000 37.119056  2.855312
262    1  0.000000 37.119056  5.710624
263    1  0.000000 37.119056  8.565936
264    1  0.000000 37.119056 11.421248
265    1  0.000000 37.119056 14.276560
266    1  0.000000 37.119056 17.131872
267    1  0.000000 37.119056 19.987184
268    1  0.000000 37.119056 22.842496
269    1  0.000000 37.119056 25.697808
270    1  0.000000 37.119056 28.553120
271    1  0.000000 37.119056 31.408432
272    1  0.000000 37.119056 34.263744
273    1  0.000000 37.119056 37.119056
274    1  0.000000 37.119056 39.974368
275    1  0.000000 37.119056 42.829680
276    1  0.000000 37.119056 45.684992
277    1  0.000000 37.119056 48.540304
278    1  0.000000 37.119056 51.395616
279    1  0.000000 37.119056 54.250928
280    1  0.000000 39.974368  0.000000
281    1  0.000000 39.974368  2.855312
282    1  0.000000 39.974368  5.710624
283    1  0.000000 39.974368  8.565936
284    1  0.000000 39.974368 11.421248
285    1  0.000000 39.974368 14.276560
286    1  0.000000 39.974368 17.131872
287    1  0.000000 39.974368 19.987184
288    1  0.000000 39.974368 22.842496
289    1  0.000000 39.974368 25.697808
290    1  0.000000 39.974368 28.553120
291    1  0.000000 39.974368 31.408432
292    1  0.000000 39.974368 34.263744
293    1  0.000000 39.974368 37.119056
294    1  0.000000 39.974368 39.974368
295    1  0.000000 39.974368 42.829680
296    1  0.000000 39.974368 45.684992
297    1  0.000000 39.974368 48.540304
298    1  0.000000 39.974368 51.395616
299    1  0.000000 39.974368 54.250928
300    1  0.000000 42.829680  0.000000
301    1  0.000000 42.829680  2.855312
302    1  0.000000 42.829680  5.710624
303    1  0.000000 42.829680  8.565936
304    1  0.000000 42.829680 11.421248
305    1  0.000000 42.829680 14.276560
306    1  0.000000 42.829680 17.131872
307    1  0.000000 42.829680 19.987184
308    1  0.000000 42.829680 22.842496
309    1  0.000000 42.829680 25.697808
310    1  0.000000 42.829680 28.553120
311    1  0.000000 42.829680 31.408432
312    1  0.000000 42.829680 34.263744
313    1  0.000000 42.829680 37.119056
314    1  0.000000 42.829680 39.974368
315    1  0.000000 42.829680 42.829680
316    1  0.000000 42.829680 45.684992
317    1  0.000000 42.829680 48.540304
318    1  0.000000 42.829680 51.395616
319    1  0.000000 42.829680 54.250928
320    1  0.000000 45.684992  0.000000
321    1  0.000000 45.684992  2.855312
322    1  0.000000 45.684992  5.710624
323    1  0.000000 45.684992  8.565936
324    1  0.000000 45.684992 11.421248
325    1  0.000000 45.684992 14.276560
326    1  0.000000 45.684992 17.131872
327    1  0.000000 45.684992 19.987184
328    1  0.000000 45.684992 22.842496
329    1  0.000000 45.684992 25.697808
330    1  0.000000 45.684992 28.553120
331    1  0.000000 45.684992 31.408432
332    1  0.000000 45.684992 34.263744
333    1  0.000000 45.684992 37.119056
334    1  0.000000 45.684992 39.974368
335    1  0.000000 45.684992 42.829680
336    1  0.000000 45.684992 45.684992
337    1  0.000000 45.684992 48.540304
338    1  0.000000 45.684992 51.395616
339    1  0.000000 45.684992 54.250928
340    1  0.000000 48.540304  0.000000
341    1  0.000000 48.540304  2.855312
342    1  0.000000 48.540304  5.710624
343    1  0.000000 48.540304  8.565936
344    1  0.000000 48.540304 11.421248
345    1  0.000000 48.540304 14.276560
346    1  0.000000 48.540304 17.131872
347    1  0.000000 48.540304 19.987184
348    1  0.000000 48.540304 22.842496
349    1  0.000000 48.540304 25.697808
350    1  0.000000 48.540304 28.553120
351    1  0.000000 48.540304 31.408432
352    1  0.000000 48.540304 34.263744
353    1  0.000000 48.540304 37.119056
354    1  0.000000 48.540304 39.974368
355    1  0.000000 48.540304 42.829680
356    1  0.000000 48.540304 45.684992
357    1  0.000000 48.540304 48.540304
358    1  0.000000 48.540304 51.395616
359    1  0.000000 48.540304 54.250928
360    1  0.000000 51.395616  0.000000
361    1  0.000000 51.395616  2.855312
362    1  0.000000 51.395616  5.710624
363    1  0.000000 51.395616  8.565936
364    1  0.000000 51.395616 11.421248
365    1  0.000000 51.395616 14.276560
366    1  0.000000 51.395616 17.131872
367    1  0.000000 51.395616 19.987184
368    1  0.000000 51.395616 22.842496
369    1  0.000000 51.395616 25.697808
370    1  0.000000 51.395616 28.553120
371    1  0.000000 51.395616 31.408432
372    1  0.000000 51.395616 34.263744
373    1  0.000000 51.395616 37.119056
374    1  0.000000 51.395616 39.974368
375    1  0.000000 51.395616 42.829680
376    1  0.000000 51.395616 45.684992
377    1  0.000000 51.395616 48.540304
378    1  0.000000 51.395616 51.395616
379    1  0.000000 51.395616 54.250928
380    1  0.000000 54.250928  0.000000
381    1  0.000000 54.250928  2.855312
382    1  0.000000 54.250928  5.710624
383    1  0.000000 54.250928  8.565936
384    1  0.000000 54.250928 11.421248
385    1  0.000000 54.250928 14.276560
386    1  0.000000 54.250928 17.131872
387    1  0.000000 54.250928 19.987184
388    1  0.000000 54.250928 22.842496
389    1  0.000000 54.250928 25.697808
390    1  0.000000 54.250928 28.553120
391    1  0.000000 54.250928 31.408432
392    1  0.000000 54.250928 34.263744
393    1  0.000000 54.250928 37.119056
394    1  0.000000 54.250928 39.974368
395    1  0.000000 54.250928 42.829680
396    1  0.000000 54.250928 45.684992
397    1  0.000000 54.250928 48.540304
398    1  0.000000 54.250928 51.395616
399    1  0.000000 54.250928 54.250928
400    1  2.855312  0.000000  0.000000
401    1  2.855312  0.000000  2.855312
402    1  2.855312  0.000000  5.710624
403    1  2.855312  0.000000  8.565936
404    1  2.855312  0.000000 11.421248
405    1  2.855312  0.000000 14.276560
406    1  2.855312  0.000000 17.131872
407    1  2.855312  0.000000 19.987184
408    1  2.855312  0.000000 22.842496
409    1  2.855312  0.000000 25.697808
410    1  2.855312  0.000000 28.553120
411    1  2.855312  0.000000 31.408432
412    1  2.855312  0.000000 34.263744
413    1  2.855312  0.000000 37.119056
414    1  2.855312  0.000000 39.974368
415    1  2.855312  0.000000 42.829680
416    1  2.855312  0.000000 45.684992
417    1  2.855312  0.000000 48.540304
418    1  2.855312  0.000000 51.395616
419    1  2.855312  0.000000 54.250928
420    1  2.855312  2.855312  0.000000
421    1  2.855312  2.855312  2.855312
422    1  2.855312  2.855312  5.710624
423    1  2.855312  2.855312  8.565936
424    1  2.855312  2.855312 11.421248
425    1  2.855312  2.855312 14.276560
426    1  2.855312  2.855312 17.131872
427    1  2.855312  2.855312 19.987184
428    1  2.855312  2.855312 22.842496
429    1  2.855312  2.855312 25.697808
430    1  2.855312  2.855312 28.553120
431    1  2.855312  2.855312 31.408432
432    1  2.855312  2.855312 34.263744
433    1  2.855312  2.855312 37.119056
434    1  2.855312  2.855312 39.974368
435    1  2.855312  2.855312 42.829680
436    1  2.855312  2.855312 45.684992
437    1  2.855312  2.855312 48.540304
438    1  2.855312  2.855312 51.395616
439    1  2.855312  2.855312 54.250928
440    1  2.855312  5.710624  0.000000
441    1  2.855312  5.710624  2.855312
442    1  2.855312  5.710624  5.710624
443    1  2.855312  5.710624  8.565936
444    1  2.855312  5.710624 11.421248
445    1  2.855312  5.710624 14.276560
446    1  2.855312  5.710624 17.131872
447    1  2.855312  5.710624 19.987184
448    1  2.855312  5.710624 22.842496
449    1  2.855312  5.710624 25.697808
450    1  2.855312  5.710624 28.553120
451    1  2.855312  5.710624 31.408432
452    1  2.855312  5.710624 34.263744
453    1  2.855312  5.710624 37.119056
454    1  2.855312  5.710624 39.974368
455    1  2.855312  5.710624 42.829680
456    1  2.855312  5.710624 45.684992
457    1  2.855312  5.710624 48.540304
458    1  2.855312  5.710624 51.395616
459    1  2.855312  5.710624 54.250928
460    1  2.855312  8.565936  0.000000
461    1  2.855312  8.565936  2.855312
462    1  2.855312  8.565936  5.710624
463    1  2.855312  8.565936  8.565936
464    1  2.855312  8.565936 11.421248
465    1  2.855312  8.565936 14.276560
466    1  2.855312  8.565936 17.131872
467    1  2.855312  8.565936 19.987184
468    1  2.855312  8.565936 22.842496
469    1  2.855312  8.565936 25.697808
470    1  2.855312  8.565936 28.553120
471    1  2.855312  8.565936 31.408432
472    1  2.855312  8.565936 34.263744
473    1  2.855312  8.565936 37.119056
474    1  2.855312  8.565936 39.974368
475    1  2.855312  8.565936 42.829680
476    1  2.855312  8.565936 45.684992
477    1  2.855312  8.565936 48.540304
478    1  2.855312  8.565936 51.395616
479    1  2.855312  8.565936 54.250928
480    1  2.855312 11.421248  0.000000
481    1  2.855312 11.421248  2.855312
482    1  2.855312 11.421248  5.710624
483    1  2.855312 11.421248  8.565936
484    1  2.855312 11.421248 11.421248
485    1  2.855312 11.421248 14.276560
486    1  2.855312 11.421248 17.131872
487    1  2.855312 11.421248 19.987184
488    1  2.855312 11.421248 22.842496
489    1  2.855312 11.421248 25.697808
490    1  2.855312 11.421248 28.553120
491    1  2.855312 11.421248 31.408432
492    1  2.855312 11.421248 34.263744
493    1  2.855312 11.421248 37.119056
494    1  2.855312 11.421248 39.974368
495    1  2.855312 11.421248 42.829680
496    1  2.855312 11.421248 45.684992
497    1  2.855312 11.421248 48.540304
498    1  2.855312 11.421248 51.395616
499    1  2.855312 11.421248 54.250928
500    1  2.855312 14.276560  0.000000
501    1  2.855312 14.276560  2.855312
502    1  2.855312 14.276560  5.710624
503    1  2.855312 14.276560  8.565936
504    1  2.855312 14.276560 11.421248
505    1  2.855312 14.276560 14.276560
506    1  2.855312 14.276560 17.131872
507    1  2.855312 14.276560 19.987184
508    1  2.855312 14.276560 22.842496
509    1  2.855312 14.276560 25.697808
510    1  2.855312 14.276560 28.553120
511    1  2.855312 14.276560 31.408432
512    1  2.855312 14.276560 34.263744
513    1  2.855312 14.276560 37.119056
514    1  2.855312 14.276560 39.974368
515    1  2.855312 14.276560 42.829680
516    1  2.855312 14.276560 45.684992
517    1  2.855312 14.276560 48.540304
518    1  2.855312 14.276560 51.395616
519    1  2.855312 14.276560 54.250928
520    1  2.855312 17.131872  0.000000
521    1  2.855312 17.131872  2.855312
522    1  2.855312 17.131872  5.710624
523    1  2.855312 17.131872  8.565936
524    1  2.855312 17.131872 11.421248
525    1  2.855312 17.131872 14.276560
526    1  2.855312 17.131872 17.131872
527    1  2.855312 17.131872 19.987184
528    1  2.855312 17.131872 22.842496
529    1  2.855312 17.131872 25.697808
530    1  2.855312 17.131872 28.553120
531    1  2.855312 17.131872 31.408432
532    1  2.855312 17.131872 34.263744
533    1  2.855312 17.131872 37.119056
534    1  2.855312 17.131872 39.974368
535    1  2.855312 17.131872 42.829680
536    1  2.855312 17.131872 45.684992
537    1  2.855312 17.131872 48.540304
538    1  2.855312 17.131872 51.395616
539    1  2.855312 17.131872 54.250928
540    1  2.855312 19.987184  0.000000
541    1  2.855312 19.987184  2.855312
542    1  2.855312 19.987184  5.710624
543    1  2.855312 19.987184  8.565936
544    1  2.855312 19.987184 11.421248
545    1  2.855312 19.987184 14.276560
546    1  2.855312 19.987184 17.131872
547    1  2.855312 19.987184 19.987184
548    1  2.855312 19.987184 22.842496
549    1  2.855312 19.987184 25.697808
550    1  2.855312 19.987184 28.553120
551    1  2.855312 19.987184 31.408432
552    1  2.855312 19.987184 34.263744
553    1  2.855312 19.987184 37.119056
554    1  2.855312 19.987184 39.974368
555    1  2.855312 19.987184 42.829680
556    1  2.855312 19.987184 45.684992
557    1  2.855312 19.987184 48.540304
558    1  2.855312 19.987184 51.395616
559    1  2.855312 19.987184 54.250928
560    1  2.855312 22.842496  0.000000
561    1  2.855312 22.842496  2.855312
562    1  2.855312 22.842496  5.710624
563    1  2.855312 22.842496  8.565936
564    1  2.855312 22.842496 11.421248
565    1  2.855312 22.842496 14.276560
566    1  2.855312 22.842496 17.131872
567    1  2.855312 22.842496 19.987184
568    1  2.855312 22.842496 22.842496
569    1  2.855312 22.842496 25.697808
570    1  2.855312 22.842496 28.553120
571    1  2.855312 22.842496 31.408432
572    1  2.855312 22.842496 34.263744
573    1  2.855312 22.842496 37.119056
574    1  2.855312 22.842496 39.974368
575    1  2.855312 22.842496 42.829680
576    1  2.855312 22.842496 45.684992
577    1  2.855312 22.842496 48.540304
578    1  2.855312 22.842496 51.395616
579    1  2.855312 22.842496 54.250928
580    1  2.855312 25.697808  0.000000
581    1  2.855312 25.697808  2.855312
582    1  2.855312 25.697808  5.710624
583    1  2.855312 25.697808  8.565936
584    1  2.855312 25.697808 11.421248
585    1  2.855312 25.697808 14.276560
586    1  2.855312 25.697808 17.131872
587    1  2.855312 25.697808 19.987184
588    1  2.855312 25.697808 22.842496
589    1  2.855312 25.697808 25.697808
590    1  2.855312 25.697808 28.553120
591    1  2.855312 25.697808 31.408432
592    1  2.855312 25.697808 34.263744
593    1  2.855312 25.697808 37.119056
594    1  2.855312 25.697808 39.974368
595    1  2.855312 25.697808 42.829680
596    1  2.855312 25.697808 45.684992
597    1  2.855312 25.697808 48.540304
598    1  2.855312 25.697808 51.395616
599    1  2.855312 25.697808 54.250928
600    1  2.855312 28.553120  0.000000
601    1  2.855312 28.553120  2.855312
602    1  2.855312 28.553120  5.710624
603    1  2.855312 28.553120  8.565936
604    1  2.855312 28.553120 11.421248
605    1  2.855312 28.553120 14.276560
606    1  2.855312 28.553120 17.131872
607    1  2.855312 28.553120 19.987184
608    1  2.855312 28.553120 22.842496
609    1  2.855312 28.553120 25.697808
610    1  2.855312 28.553120 28.553120
611    1  2.855312 28.553120 31.408432
612    1  2.855312 28.553120 34.263744
613    1  2.855312 28.553120 37.119056
614    1  2.855312 28.553120 39.974368
615    1  2.855312 28.553120 42.829680
616    1  2.855312 28.553120 45.684992
617    1  2.855312 28.553120 48.540304
618    1  2.855312 28.553120 51.395616
619    1  2.855312 28.553120 54.250928
620    1  2.855312 31.408432  0.000000
621    1  2.855312 31.408432  2.855312
622    1  2.855312 31.408432  5.710624
623    1  2.855312 31.408432  8.565936
624    1  2.855312 31.408432 11.421248
625    1  2.855312 31.408432 14.276560
626    1  2.855312 31.408432 17.131872
627    1  2.855312 31.408432 19.987184
628    1  2.855312 31.408432 22.842496
629    1  2.855312 31.408432 25.697808
630    1  2.855312 31.408432 28.553120
631    1  2.855312 31.408432 31.408432
632    1  2.855312 31.408432 34.263744
633    1  2.855312 31.408432 37.119056
634    1  2.855312 31.408432 39.974368
635    1  2.855312 31.408432 42.829680
636    1  2.855312 31.408432 45.684992
637    1  2.855312 31.408432 48.540304
638    1  2.855312 31.408432 51.395616
639    1  2.855312 31.408432 54.250928
640    1  2.855312 34.263744  0.000000
641    1  2.855312 34.263744  2.855312
642    1  2.855312 34.263744  5.710624
643    1  2.855312 34.263744  8.565936
644    1  2.855312 34.263744 11.421248
645    1  2.855312 34.263744 14.276560
646    1  2.855312 34.263744 17.131872
647    1  2.855312 34.263744 19.987184
648    1  2.855312 34.263744 22.842496
649    1  2.855312 34.263744 25.697808
650    1  2.855312 34.263744 28.553120
651    1  2.855312 34.263744 31.408432
652    1  2.855312 34.263744 34.263744
653    1  2.855312 34.263744 37.119056
654    1  2.855312 34.263744 39.974368
655    1  2.855312 34.263744 42.829680
656    1  2.855312 34.263744 45.684992
657    1  2.855312 34.263744 48.540304
658    1  2.855312 34.263744 51.395616
659    1  2.855312 34.263744 54.250928
660    1  2.855312 37.119056  0.000000
661    1  2.855312 37.119056  2.855312
662    1  2.855312 37.119056  5.710624
663    1  2.855312 37.119056  8.565936
664    1  2.855312 37.119056 11.421248
665    1  2.855312 37.119056 14.276560
666    1  2.855312 37.119056 17.131872
667    1  2.855312 37.119056 19.987184
668    1  2.855312 37.119056 22.842496
669    1  2.855312 37.119056 25.697808
670    1  2.855312 37.119056 28.553120
671    1  2.855312 37.119056 31.408432
672    1  2.855312 37.119056 34.263744
673    1  2.855312 37.119056 37.119056
674    1  2.855312 37.119056 39.974368
675    1  2.855312 37.119056 42.829680
676    1  2.855312 37.119056 45.684992
677    1  2.855312 37.119056 48.540304
678    1  2.855312 37.119056 51.395616
679    1  2.855312 37.119056 54.250928
680    1  2.855312 39.974368  0.000000
681    1  2.855312 39.974368  2.855312
682    1  2.855312 39.974368  5.710624
683    1  2.855312 39.974368  8.565936
684    1  2.855312 39.974368 11.421248
685    1  2.855312 39.974368 14.276560
686    1  2.855312 39.974368 17.131872
687    1  2.855312 39.974368 19.987184
688    1  2.855312 39.974368 22.842496
689    1  2.855312 39.974368 25.697808
690    1  2.855312 39.974368 28.553120
691    1  2.855312 39.974368 31.408432
692    1  2.855312 39.974368 34.263744
693    1  2.855312 39.974368 37.119056
694    1  2.855312 39.974368 39.974368
695    1  2.855312 39.974368 42.829680
696    1  2.855312 39.974368 45.684992
697    1  2.855312 39.974368 48.540304
698    1  2.855312 39.974368 51.395616
699    1  2.855312 39.974368 54.250928
700    1  2.855312 42.829680  0.000000
701    1  2.855312 42.829680  2.855312
702    1  2.855312 42.829680  5.710624
703    1  2.855312 42.829680  8.565936
704    1  2.855312 42.829680 11.421248
705    1  2.855312 42.829680 14.276560
706    1  2.855312 42.829680 17.131872
707    1  2.855312 42.829680 19.987184
708    1  2.855312 42.829680 22.842496
709    1  2.855312 42.829680 25.697808
710    1  2.855312 42.829680 28.553120
711    1  2.855312 42.829680 31.408432
712    1  2.855312 42.829680 34.263744
713    1  2.855312 42.829680 37.119056
714    1  2.855312 42.829680 39.974368
715    1  2.855312 42.829680 42.829680
716    1  2.855312 42.829680 45.684992
717    1  2.855312 42.829680 48.540304
718    1  2.855312 42.829680 51.395616
719    1  2.855312 42.829680 54.250928
720    1  2.855312 45.684992  0.000000
721    1  2.855312 45.684992  2.855312
722    1  2.855312 45.684992  5.710624
723    1  2.855312 45.684992  8.565936
724    1  2.855312 45.684992 11.421248
725    1  2.855312 45.684992 14.276560
726    1  2.855312 45.684992 17.131872
727    1  2.855312 45.684992 19.987184
728    1  2.855312 45.684992 22.842496
729    1  2.855312 45.684992 25.697808
730    1  2.855312 45.684992 28.553120
731    1  2.855312 45.684992 31.408432
732    1  2.855312 45.684992 34.263744
733    1  2.855312 45.684992 37.119056
734    1  2.855312 45.684992 39.974368
735    1  2.855312 45.684992 42.829680
736    1  2.855312 45.684992 45.684992
737    1  2.855312 45.684992 48.540304
738    1  2.855312 45.684992 51.395616
739    1  2.855312 45.684992 54.250928
740    1  2.855312 48.540304  0.000000
741    1  2.855312 48.540304  2.855312
742    1  2.855312 48.540304  5.710624
743    1  2.855312 48.540304  8.565936
744    1  2.855312 48.540304 11.421248
745    1  2.855312 48.540304 14.276560
746    1  2.855312 48.540304 17.131872
747    1  2.855312 48.540304 19.987184
748    1  2.855312 48.540304 22.842496
749    1  2.855312 48.540304 25.697808
750    1  2.855312 48.540304 28.553120
751    1  2.855312 48.540304 31.408432
752    1  2.855312 48.540304 34.263744
753    1  2.855312 48.540304 37.119056
754    1  2.855312 48.540304 39.974368
755    1  2.855312 48.540304 42.829680
756    1  2.855312 48.540304 45.684992
757    1  2.855312 48.540304 48.540304
758    1  2.855312 48.540304 51.395616
759    1  2.855312 48.540304 54.250928
760    1  2.855312 51.395616  0.000000
761    1  2.855312 51.395616  2.855312
762    1  2.855312 51.395616  5.710624
763    1  2.855312 51.395616  8.565936
764    1  2.855312 51.395616 11.421248
765    1  2.855312 51.395616 14.276560
766    1  2.855312 51.395616 17.131872
767    1  2.855312 51.395616 19.987184
768    1  2.855312 51.395616 22.842496
769    1  2.855312 51.395616 25.697808
770    1  2.855312 51.395616 28.553120
771    1  2.855312 51.395616 31.408432
772    1  2.855312 51.395616 34.263744
773    1  2.855312 51.395616 37.119056
774    1  2.855312 51.395616 39.974368
775    1  2.855312 51.395616 42.829680
776    1  2.855312 51.395616 45.684992
777    1  2.855312 51.395616 48.540304
778    1  2.855312 51.395616 51.395616
779    1  2.855312 51.395616 54.250928
780    1  2.855312 54.250928  0.000000
781    1  2.855312 54.250928  2.855312
782    1  2.855312 54.250928  5.710624
783    1  2.855312 54.250928  8.565936
784    1  2.855312 54.250928 11.421248
785    1  2.855312 54.250928 14.276560
786    1  2.855312 54.250928 17.131872
787    1  2.855312 54.250928 19.987184
788    1  2.855312 54.250928 22.842496
789    1  2.855312 54.250928 25.697808
790    1  2.855312 54.250928 28.553120
791    1  2.855312 54.250928 31.408432
792    1  2.855312 54.250928 34.263744
793    1  2.855312 54.250928 37.119056
794    1  2.855312 54.250928 39.974368
795    1  2.855312 54.250928 42.829680
796    1  2.855312 54.250928 45.684992
797    1  2.855312 54.250928 48.540304
798    1  2.855312 54.250928 51.395616
799    1  2.855312 54.250928 54.250928
800    1  5.710624  0.000000  0.000000
801    1  5.710624  0.000000  2.855312
802    1  5.710624  0.000000  5.710624
803    1  5.710624  0.000000  8.565936
804    1  5.710624  0.000000 11.421248
805    1  5.710624  0.000000 14.276560
806    1  5.710624  0.000000 17.131872
807    1  5.710624  0.000000 19.987184
808    1  5.710624  0.000000 22.842496
809    1  5.710624  0.000000 25.697808
810    1  5.710624  0.000000 28.553120
811    1  5.710624  0.000000 31.408432
812    1  5.710624  0.000000 34.263744
813    1  5.710624  0.000000 37.119056
814    1  5.710624  0.000000 39.974368
815    1  5.710624  0.000000 42.829680
816    1  5.710624  0.000000 45.684992
817    1  5.710624  0.000000 48.540304
818    1  5.710624  0.000000 51.395616
819    1  5.710624  0.000000 54.250928
820    1  5.710624  2.855312  0.000000
821    1  5.710624  2.855312  2.855312
822    1  5.710624  2.855312  5.710624
823    1  5.710624  2.855312  8.565936
824    1  5.710624  2.855312 11.421248
825    1  5.710624  2.855312 14.276560
826    1  5.710624  2.855312 17.131872
827    1  5.710624  2.855312 19.987184
828    1  5.710624  2.855312 22.842496
829    1  5.710624  2.855312 25.697808
830    1  5.710624  2.855312 28.553120
831    1  5.710624  2.855312 31.408432
832    1  5.710624  2.855312 34.263744
833    1  5.710624  2.855312 37.119056
834    1  5.710624  2.855312 39.974368
835    1  5.710624  2.855312 42.829680
836    1  5.710624  2.855312 45.684992
837    1  5.710624  2.855312 48.540304
838    1  5.710624  2.855312 51.395616
839    1  5.710624  2.855312 54.250928
840    1  5.710624  5.710624  0.000000
841    1  5.710624  5.710624  2.855312
842    1  5.710624  5.710624  5.710624
843    1  5.710624  5.710624  8.565936
844    1  5.710624  5.710624 11.421248
845    1  5.710624  5.710624 14.276560
846    1  5.710624  5.710624 17.131872
847    1  5.710624  5.710624 19.987184
848    1  5.710624  5.710624 22.842496
849    1  5.710624  5.710624 25.697808
850    1  5.710624  5.710624 28.553120
851    1  5.710624  5.710624 31.408432
852    1  5.710624  5.710624 34.263744
853    1  5.710624  5.710624 37.119056
854    1  5.710624  5.710624 39.974368
855    1  5.710624  5.710624 42.829680
856    1  5.710624  5.710624 45.684992
857    1  5.710624  5.710624 48.540304
858    1  5.710624  5.710624 51.395616
859    1  5.710624  5.710624 54.250928
860    1  5.710624  8.565936  0.000000
861    1  5.710624  8.565936  2.855312
862    1  5.710624  8.565936  5.710624
863    1  5.710624  8.565936  8.565936
864    1  5.710624  8.565936 11.421248
865    1  5.710624  8.565936 14.276560
866    1  5.710624  8.565936 17.131872
867    1  5.710624  8.565936 19.987184
868    1  5.710624  8.565936 22.842496
869    1  5.710624  8.565936 25.697808
870    1  5.710624  8.565936 28.553120
871    1  5.710624  8.565936 31.408432
872    1  5.710624  8.565936 34.263744
873    1  5.710624  8.565936 37.119056
874    1  5.710624  8.565936 39.974368
875    1  5.710624  8.565936 42.829680
876    1  5.710624  8.565936 45.684992
877    1  5.710624  8.565936 48.540304
878    1  5.710624  8.565936 51.395616
879    1  5.710624  8.565936 54.250928
880    1  5.710624 11.421248  0.000000
881    1  5.710624 11.421248  2.855312
882    1  5.710624 11.421248  5.710624
883    1  5.710624 11.421248  8.565936
884    1  5.710624 11.421248 11.421248
885    1  5.710624 11.421248 14.276560
886    1  5.710624 11.421248 17.131872
887    1  5.710624 11.421248 19.987184
888    1  5.710624 11.421248 22.842496
889    1  5.710624 11.421248 25.697808
890    1  5.710624 11.421248 28.553120
891    1  5.710624 11.421248 31.408432
892    1  5.710624 11.421248 34.263744
893    1  5.710624 11.421248 37.119056
894    1  5.710624 11.421248 39.974368
895    1  5.710624 11.421248 42.829680
896    1  5.710624 11.421248 45.684992
897    1  5.710624 11.421248 48.540304
898    1  5.710624 11.421248 51.395616
899    1  5.710624 11.421248 54.250928
900    1  5.710624 14.276560  0.000000
901    1  5.710624 14.276560  2.855312
902    1  5.710624 14.276560  5.710624
903    1  5.710624 14.276560  8.565936
904    1  5.710624 14.276560 11.421248
905    1  5.710624 14.276560 14.276560
906    1  5.710624 14.276560 17.131872
907    1  5.710624 14.276560 19.987184
908    1  5.710624 14.276560 22.842496
909    1  5.710624 14.276560 25.697808
910    1  5.710624 14.276560 28.553120
911    1  5.710624 14.276560 31.408432
912    1  5.710624 14.276560 34.263744
913    1  5.710624 14.276560 37.119056
914    1  5.710624 14.276560 39.974368
915    1  5.710624 14.276560 42.829680
916    1  5.710624 14.276560 45.684992
917    1  5.710624 14.276560 48.540304
918    1  5.710624 14.276560 51.395616
919    1  5.710624 14.276560 54.250928
920    1  5.710624 17.131872  0.000000
921    1  5.710624 17.131872  2.855312
922    1  5.710624 17.131872  5.710624
923    1  5.710624 17.131872  8.565936
924    1  5.710624 17.131872 11.421248
925    1  5.710624 17.131872 14.276560
926    1  5.710624 17.131872 17.131872
927    1  5.710624 17.131872 19.987184
928    1  5.710624 17.131872 22.842496
929    1  5.710624 17.131872 25.697808
930    1  5.710624 17.131872 28.553120
931    1  5.710624 17.131872 31.408432
932    1  5.710624 17.131872 34.263744
933    1  5.710624 17.131872 37.119056
934    1  5.710624 17.131872 39.974368
935    1  5.710624 17.131872 42.829680
936    1  5.710624 17.131872 45.684992
937    1  5.710624 17.131872 48.540304
938    1  5.710624 17.131872 51.395616
939    1  5.710624 17.131872 54.250928
940    1  5.710624 19.987184  0.000000
941    1  5.710624 19.987184  2.855312
942    1  5.710624 19.987184  5.710624
943    1  5.710624 19.987184  8.565936
944    1  5.710624 19.987184 11.421248
945    1  5.710624 19.987184 14.276560
946    1  5.710624 19.987184 17.131872
947    1  5.710624 19.987184 19.987184
948    1  5.710624 19.987184 22.842496
949    1  5.710624 19.987184 25.697808
950    1  5.710624 19.987184 28.553120
951    1  5.710624 19.987184 31.408432
952    1  5.710624 19.987184 34.263744
953    1  5.710624 19.987184 37.119056
954    1  5.710624 19.987184 39.974368
955    1  5.710624 19.987184 42.829680
956    1  5.710624 19.987184 45.684992
957    1  5.710624 19.987184 48.540304
958    1  5.710624 19.987184 51.395616
959    1  5.710624 19.987184 54.250928
960    1  5.710624 22.842496  0.000000
961    1  5.710624 22.842496  2.855312
962    1  5.710624 22.842496  5.710624
963    1  5.710624 22.842496  8.565936
964    1  5.710624 22.842496 11.421248
965    1  5.710624 22.842496 14.276560
966    1  5.710624 22.842496 17.131872
967    1  5.710624 22.842496 19.987184
968    1  5.710624 22.842496 22.842496
969    1  5.710624 22.842496 25.697808
970    1  5.710624 22.842496 28.553120
971    1  5.710624 22.842496 31.408432
972    1  5.710624 22.842496 34.263744
973    1  5.710624 22.842496 37.119056
974    1  5.710624 22.842496 39.974368
975    1  5.710624 22.842496 42.829680
976    1  5.710624 22.842496 45.684992
977    1  5.710624 22.842496 48.540304
978    1  5.710624 22.842496 51.395616
979    1  5.710624 22.842496 54.250928
980    1  5.710624 25.697808  0.000000
981    1  5.710624 25.697808  2.855312
982    1  5.710624 25.697808  5.710624
983    1  5.710624 25.697808  8.565936
984    1  5.710624 25.697808 11.421248
985    1  5.710624 25.697808 14.276560
986    1  5.710624 25.697808 17.131872
987    1  5.710624 25.697808 19.987184
988    1  5.710624 25.697808 22.842496
989    1  5.710624 25.697808 25.697808
990    1  5.710624 25.697808 28.553120
991    1  5.710624 25.697808 31.408432
992    1  5.710624 25.697808 34.263744
993    1  5.710624 25.697808 37.119056
994    1  5.710624 25.697808 39.974368
995    1  5.710624 25.697808 42.829680
996    1  5.710624 25.697808 45.684992
997    1  5.710624 25.697808 48.540304
998    1  5.710624 25.697808 51.395616
999    1  5.710624 25.697808 54.250928
1000   1  5.710624 28.553120  0.000000
1001   1  5.710624 28.553120  2.855312
1002   1  5.710624 28.553120  5.710624
1003   1  5.710624 28.553120  8.565936
1004   1  5.710624 28.553120 11.421248
1005   1  5.710624 28.553120 14.276560
1006   1  5.710624 28.553120 17.131872
1007   1  5.710624 28.553120 19.987184
1008   1  5.710624 28.553120 22.842496
1009   1  5.710624 28.553120 25.697808
1010   1  5.710624 28.553120 28.553120
1011   1  5.710624 28.553120 31.408432
1012   1  5.710624 28.553120 34.263744
1013   1  5.710624 28.553120 37.119056
1014   1  5.710624 28.553120 39.974368
1015   1  5.710624 28.553120 42.829680
1016   1  5.710624 28.553120 45.684992
1017   1  5.710624 28.553120 48.540304
1018   1  5.710624 28.553120 51.395616
1019   1  5.710624 28.553120 54.250928
1020   1  5.710624 31.408432  0.000000
1021   1  5.710624 31.408432  2.855312
1022   1  5.710624 31.408432  5.710624
1023   1  5.710624 31.408432  8.565936
1024   1  5.710624 31.408432 11.421248
1025   1  5.710624 31.408432 14.276560
1026   1  5.710624 31.408432 17.131872
1027   1  5.710624 31.408432 19.987184
1028   1  5.710624 31.408432 22.842496
1029   1  5.710624 31.408432 25.697808
1030   1  5.710624 31.408432 28.553120
1031   1  5.710624 31.408432 31.408432
1032   1  5.710624 31.408432 34.263744
1033   1  5.710624 31.408432 37.119056
1034   1  5.710624 31.408432 39.974368
1035   1  5.710624 31.408432 42.829680
1036   1  5.710624 31.408432 45.684992
1037   1  5.710624 31.408432 48.540304
1038   1  5.710624 31.408432 51.395616
1039   1  5.710624 31.408432 54.250928
1040   1  5.710624 34.263744  0.000000
1041   1  5.710624 34.263744  2.855312
1042   1  5.710624 34.263744  5.710624
1043   1  5.710624 34.263744  8.565936
1044   1  5.710624 34.263744 11.421248
1045   1  5.710624 34.263744 14.276560
1046   1  5.710624 34.263744 17.131872
1047   1  5.710624 34.263744 19.987184
1048   1  5.710624 34.263744 22.842496
1049   1  5.710624 34.263744 25.697808
1050   1  5.710624 34.263744 28.553120
1051   1  5.710624 34.263744 31.408432
1052   1  5.710624 34.263744 34.263744
1053   1  5.710624 34.263744 37.119056
1054   1  5.710624 34.263744 39.974368
1055   1  5.710624 34.263744 42.829680
1056   1  5.710624 34.263744 45.684992
1057   1  5.710624 34.263744 48.540304
1058   1  5.710624 34.263744 51.395616
1059   1  5.710624 34.263744 54.250928
1060   1  5.710624 37.119056  0.000000
1061   1  5.710624 37.119056  2.855312
1062   1  5.710624 37.119056  5.710624
1063   1  5.710624 37.119056  8.565936
1064   1  5.710624 37.119056 11.421248
1065   1  5.710624 37.119056 14.276560
1066   1  5.710624 37.119056 17.131872
1067   1  5.710624 37.119056 19.987184
1068   1  5.710624 37.119056 22.842496
1069   1  5.710624 37.119056 25.697808
1070   1  5.710624 37.119056 28.553120
1071   1  5.710624 37.119056 31.408432
1072   1  5.710624 37.119056 34.263744
1073   1  5.710624 37.119056 37.119056
1074   1  5.710624 37.119056 39.974368
1075   1  5.710624 37.119056 42.829680
1076   1  5.710624 37.119056 45.684992
1077   1  5.710624 37.119056 48.540304
1078   1  5.710624 37.119056 51.395616
1079   1  5.710624 37.119056 54.250928
1080   1  5.710624 39.974368  0.000000
1081   1  5.710624 39.974368  2.855312
1082   1  5.710624 39.974368  5.710624
1083   1  5.710624 39.974368  8.565936
1084   1  5.710624 39.974368 11.421248
1085   1  5.710624 39.974368 14.276560
1086   1  5.710624 39.974368 17.131872
1087   1  5.710624 39.974368 19.987184
1088   1  5.710624 39.974368 22.842496
1089   1  5.710624 39.974368 25.697808
1090   1  5.710624 39.974368 28.553120
1091   1  5.710624 39.974368 31.408432
1092   1  5.710624 39.974368 34.263744
1093   1  5.710624 39.974368 37.119056
1094   1  5.710624 39.974368 39.974368
1095   1  5.710624 39.974368 42.829680
1096   1  5.710624 39.974368 45.684992
1097   1  5.710624 39.974368 48.540304
1098   1  5.710624 39.974368 51.395616
1099   1  5.710624 39.974368 54.250928
1100   1  5.710624 42.829680  0.000000
1101   1  5.710624 42.829680  2.855312
1102   1  5.710624 42.829680  5.710624
1103   1  5.710624 42.829680  8.565936
1104   1  5.710624 42.829680 11.421248
1105   1  5.710624 42.829680 14.276560
1106   1  5.710624 42.829680 17.131872
1107   1  5.710624 42.829680 19.987184
1108   1  5.710624 42.829680 22.842496
1109   1  5.710624 42.829680 25.697808
1110   1  5.710624 42.829680 28.553120
1111   1  5.710624 42.829680 31.408432
1112   1  5.710624 42.829680 34.263744
1113   1  5.710624 42.829680 37.119056
1114   1  5.710624 42.829680 39.974368
1115   1  5.710624 42.829680 42.829680
1116   1  5.710624 42.829680 45.684992
1117   1  5.710624 42.829680 48.540304
1118   1  5.710624 42.829680 51.395616
1119   1  5.710624 42.829680 54.250928
1120   1  5.710624 45.684992  0.000000
1121   1  5.710624 45.684992  2.855312
1122   1  5.710624 45.684992  5.710624
1123   1  5.710624 45.684992  8.565936
1124   1  5.710624 45.684992 11.421248
1125   1  5.710624 45.684992 14.276560
1126   1  5.710624 45.684992 17.131872
1127   1  5.710624 45.684992 19.987184
1128   1  5.710624 45.684992 22.842496
1129   1  5.710624 45.684992 25.697808
1130   1  5.710624 45.684992 28.553120
1131   1  5.710624 45.684992 31.408432
1132   1  5.710624 45.684992 34.263744
1133   1  5.710624 45.684992 37.119056
1134   1  5.710624 45.684992 39.974368
1135   1  5.710624 45.684992 42.829680
1136   1  5.710624 45.684992 45.684992
1137   1  5.710624 45.684992 48.540304
1138   1  5.710624 45.684992 51.395616
1139   1  5.710624 45.684992 54.250928
1140   1  5.710624 48.540304  0.000000
1141   1  5.710624 48.540304  2.855312
1142   1  5.710624 48.540304  5.710624
1143   1  5.710624 48.540304  8.565936
1144   1  5.710624 48.540304 11.421248
1145   1  5.710624 48.540304 14.276560
1146   1  5.710624 48.540304 17.131872
1147   1  5.710624 48.540304 19.987184
1148   1  5.710624 48.540304 22.842496
1149   1  5.710624 48.540304 25.697808
1150   1  5.710624 48.540304 28.553120
1151   1  5.710624 48.540304 31.408432
1152   1  5.710624 48.540304 34.263744
1153   1  5.710624 48.540304 37.119056
1154   1  5.710624 48.540304 39.974368
1155   1  5.710624 48.540304 42.829680
1156   1  5.710624 48.540304 45.684992
1157   1  5.710624 48.540304 48.540304
1158   1  5.710624 48.540304 51.395616
1159   1  5.710624 48.540304 54.250928
1160   1  5.710624 51.395616  0.000000
1161   1  5.710624 51.395616  2.855312
1162   1  5.710624 51.395616  5.710624
1163   1  5.710624 51.395616  8.565936
1164   1  5.710624 51.395616 11.421248
1165   1  5.710624 51.395616 14.276560
1166   1  5.710624 51.395616 17.131872
1167   1  5.710624 51.395616 19.987184
1168   1  5.710624 51.395616 22.842496
1169   1  5.710624 51.395616 25.697808
1170   1  5.710624 51.395616 28.553120
1171   1  5.710624 51.395616 31.408432
1172   1  5.710624 51.395616 34.263744
1173   1  5.710624 51.395616 37.119056
1174   1  5.710624 51.395616 39.974368
1175   1  5.710624 51.395616 42.829680
1176   1  5.710624 51.395616 45.684992
1177   1  5.710624 51.395616 48.540304
1178   1  5.710624 51.395616 51.395616
1179   1  5.710624 51.395616 54.250928
1180   1  5.710624 54.250928  0.000000
1181   1  5.710624 54.250928  2.855312
1182   1  5.710624 54.250928  5.710624
1183   1  5.710624 54.250928  8.565936
1184   1  5.710624 54.250928 11.421248
1185   1  5.710624 54.250928 14.276560
1186   1  5.710624 54.250928 17.131872
1187   1  5.710624 54.250928 19.987184
1188   1  5.710624 54.250928 22.842496
1189   1  5.710624 54.250928 25.697808
1190   1  5.710624 54.250928 28.553120
1191   1  5.710624 54.250928 31.408432
1192   1  5.710624 54.250928 34.263744
1193   1  5.710624 54.250928 37.119056
1194   1  5.710624 54.250928 39.974368
1195   1  5.710624 54.250928 42.829680
1196   1  5.710624 54.250928 45.684992
1197   1  5.710624 54.250928 48.540304
1198   1  5.710624 54.250928 51.395616
1199   1  5.710624 54.250928 54.250928
1200   1  8.565936  0.000000  0.000000
1201   1  8.565936  0.000000  2.855312
1202   1  8.565936  0.000000  5.710624
1203   1  8.565936  0.000000  8.565936
1204   1  8.565936  0.000000 11.421248
1205   1  8.565936  0.000000 14.276560
1206   1  8.565936  0.000000 17.131872
1207   1  8.565936  0.000000 19.987184
1208   1  8.565936  0.000000 22.842496
1209   1  8.565936  0.000000 25.697808
1210   1  8.565936  0.000000 28.553120
1211   1  8.565936  0.000000 31.408432
1212   1  8.565936  0.000000 34.263744
1213   1  8.565936  0.000000 37.119056
1214   1  8.565936  0.000000 39.974368
1215   1  8.565936  0.000000 42.829680
1216   1  8.565936  0.000000 45.684992
1217   1  8.565936  0.000000 48.540304
1218   1  8.565936  0.000000 51.395616
1219   1  8.565936  0.000000 54.250928
1220   1  8.565936  2.855312  0.000000
1221   1  8.565936  2.855312  2.855312
1222   1  8.565936  2.855312  5.710624
1223   1  8.565936  2.855312  8.565936
1224   1  8.565936  2.855312 11.421248
1225   1  8.565936  2.855312 14.276560
1226   1  8.565936  2.855312 17.131872
1227   1  8.565936  2.855312 19.987184
1228   1  8.565936  2.855312 22.842496
1229   1  8.565936  2.855312 25.697808
1230   1  8.565936  2.855312 28.553120
1231   1  8.565936  2.855312 31.408432
1232   1  8.565936  2.855312 34.263744
1233   1  8.565936  2.855312 37.119056
1234   1  8.565936  2.855312 39.974368
1235   1  8.565936  2.855312 42.829680
1236   1  8.565936  2.855312 45.684992
1237   1  8.565936  2.855312 48.540304
1238   1  8.565936  2.855312 51.395616
1239   1  8.565936  2.855312 54.250928
1240   1  8.565936  5.710624  0.000000
1241   1  8.565936  5.710624  2.855312
1242   1  8.565936  5.710624  5.710624
1243   1  8.565936  5.710624  8.565936
1244   1  8.565936  5.710624 11.421248
1245   1  8.565936  5.710624 14.276560
1246   1  8.565936  5.710624 17.131872
1247   1  8.565936  5.710624 19.987184
1248   1  8.565936  5.710624 22.842496
1249   1  8.565936  5.710624 25.697808
1250   1  8.565936  5.710624 28.553120
1251   1  8.565936  5.710624 31.408432
1252   1  8.565936  5.710624 34.263744
1253   1  8.565936  5.710624 37.119056
1254   1  8.565936  5.710624 39.974368
1255   1  8.565936  5.710624 42.829680
1256   1  8.565936  5.710624 45.684992
1257   1  8.565936  5.710624 48.540304
1258   1  8.565936  5.710624 51.395616
1259   1  8.565936  5.710624 54.250928
1260   1  8.565936  8.565936  0.000000
1261   1  8.565936  8.565936  2.855312
1262   1  8.565936  8.565936  5.710624
1263   1  8.565936  8.565936  8.565936
1264   1  8.565936  8.565936 11.421248
1265   1  8.565936  8.565936 14.276560
1266   1  8.565936  8.565936 17.131872
1267   1  8.565936  8.565936 19.987184
1268   1  8.565936  8.565936 22.842496
1269   1  8.565936  8.565936 25.697808
1270   1  8.565936  8.565936 28.553120
1271   1  8.565936  8.565936 31.408432
1272   1  8.565936  8.565936 34.263744
1273   1  8.565936  8.565936 37.119056
1274   1  8.565936  8.565936 39.974368
1275   1  8.565936  8.565936 42.829680
1276   1  8.565936  8.565936 45.684992
1277   1  8.565936  8.565936 48.540304
1278   1  8.565936  8.565936 51.395616
1279   1  8.565936  8.565936 54.250928
1280   1  8.565936 11.421248  0.000000
1281   1  8.565936 11.421248  2.855312
1282   1  8.565936 11.421248  5.710624
1283   1  8.565936 11.421248  8.565936
1284   1  8.565936 11.421248 11.421248
1285   1  8.565936 11.421248 14.276560
1286   1  8.565936 11.421248 17.131872
1287   1  8.565936 11.421248 19.987184
1288   1  8.565936 11.421248 22.842496
1289   1  8.565936 11.421248 25.697808
1290   1  8.565936 11.421248 28.553120
1291   1  8.565936 11.421248 31.408432
1292   1  8.565936 11.421248 34.263744
1293   1  8.565936 11.421248 37.119056
1294   1  8.565936 11.421248 39.974368
1295   1  8.565936 11.421248 42.829680
1296   1  8.565936 11.421248 45.684992
1297   1  8.565936 11.421248 48.540304
1298   1  8.565936 11.421248 51.395616
1299   1  8.565936 11.421248 54.250928
1300   1  8.565936 14.276560  0.000000
1301   1  8.565936 14.276560  2.855312
1302   1  8.565936 14.276560  5.710624
1303   1  8.565936 14.276560  8.565936
1304   1  8.565936 14.276560 11.421248
1305   1  8.565936 14.276560 14.276560
1306   1  8.565936 14.276560 17.131872
1307   1  8.565936 14.276560 19.987184
1308   1  8.565936 14.276560 22.842496
1309   1  8.565936 14.276560 25.697808
1310   1  8.565936 14.276560 28.553120
1311   1  8.565936 14.276560 31.408432
1312   1  8.565936 14.276560 34.263744
1313   1  8.565936 14.276560 37.119056
1314   1  8.565936 14.276560 39.974368
1315   1  8.565936 14.276560 42.829680
1316   1  8.565936 14.276560 45.684992
1317   1  8.565936 14.276560 48.540304
1318   1  8.565936 14.276560 51.395616
1319   1  8.565936 14.276560 54.250928
1320   1  8.565936 17.131872  0.000000
1321   1  8.565936 17.131872  2.855312
1322   1  8.565936 17.131872  5.710624
1323   1  8.565936 17.131872  8.565936
1324   1  8.565936 17.131872 11.421248
1325   1  8.565936 17.131872 14.276560
1326   1  8.565936 17.131872 17.131872
1327   1  8.565936 17.131872 19.987184
1328   1  8.565936 17.131872 22.842496
1329   1  8.565936 17.131872 25.697808
1330   1  8.565936 17.131872 28.553120
1331   1  8.565936 17.131872 31.408432
1332   1  8.565936 17.131872 34.263744
1333   1  8.565936 17.131872 37.119056
1334   1  8.565936 17.131872 39.974368
1335   1  8.565936 17.131872 42.829680
1336   1  8.565936 17.131872 45.684992
1337   1  8.565936 17.131872 48.540304
1338   1  8.565936 17.131872 51.395616
1339   1  8.565936 17.131872 54.250928
1340   1  8.565936 19.987184  0.000000
1341   1  8.565936 19.987184  2.855312
1342   1  8.565936 19.987184  5.710624
1343   1  8.565936 19.987184  8.565936
1344   1  8.565936 19.987184 11.421248
1345   1  8.565936 19.987184 14.276560
1346   1  8.565936 19.987184 17.131872
1347   1  8.565936 19.987184 19.987184
1348   1  8.565936 19.987184 22.842496
1349   1  8.565936 19.987184 25.697808
1350   1  8.565936 19.987184 28.553120
1351   1  8.565936 19.987184 31.408432
1352   1  8.565936 19.987184 34.263744
1353   1  8.565936 19.987184 37.119056
1354   1  8.565936 19.987184 39.974368
1355   1  8.565936 19.987184 42.829680
1356   1  8.565936 19.987184 45.684992
1357   1  8.565936 19.987184 48.540304
1358   1  8.565936 19.987184 51.395616
1359   1  8.565936 19.987184 54.250928
1360   1  8.565936 22.842496  0.000000
1361   1  8.565936 22.842496  2.855312
1362   1  8.565936 22.842496  5.710624
1363   1  8.565936 22.842496  8.565936
1364   1  8.565936 22.842496 11.421248
1365   1  8.565936 22.842496 14.276560
1366   1  8.565936 22.842496 17.131872
1367   1  8.565936 22.842496 19.987184
1368   1  8.565936 22.842496 22.842496
1369   1  8.565936 22.842496 25.697808
1370   1  8.565936 22.842496 28.553120
1371   1  8.565936 22.842496 31.408432
1372   1  8.565936 22.842496 34.263744
1373   1  8.565936 22.842496 37.119056
1374   1  8.565936 22.842496 39.974368
1375   1  8.565936 22.842496 42.829680
1376   1  8.565936 22.842496 45.684992
1377   1  8.565936 22.842496 48.540304
1378   1  8.565936 22.842496 51.395616
1379   1  8.565936 22.842496 54.250928
1380   1  8.565936 25.697808  0.000000
1381   1  8.565936 25.697808  2.855312
1382   1  8.565936 25.697808  5.710624
1383   1  8.565936 25.697808  8.565936
1384   1  8.565936 25.697808 11.421248
1385   1  8.565936 25.697808 14.276560
1386   1  8.565936 25.697808 17.131872
1387   1  8.565936 25.697808 19.987184
1388   1  8.565936 25.697808 22.842496
1389   1  8.565936 25.697808 25.697808
1390   1  8.565936 25.697808 28.553120
1391   1  8.565936 25.697808 31.408432
1392   1  8.565936 25.697808 34.263744
1393   1  8.565936 25.697808 37.119056
1394   1  8.565936 25.697808 39.974368
1395   1  8.565936 25.697808 42.829680
1396   1  8.565936 25.697808 45.684992
1397   1  8.565936 25.697808 48.540304
1398   1  8.565936 25.697808 51.395616
1399   1  8.565936 25.697808 54.250928
1400   1  8.565936 28.553120  0.000000
1401   1  8.565936 28.553120  2.855312
1402   1  8.565936 28.553120  5.710624
1403   1  8.565936 28.553120  8.565936
1404   1  8.565936 28.553120 11.421248
1405   1  8.565936 28.553120 14.276560
1406   1  8.565936 28.553120 17.131872
1407   1  8.565936 28.553120 19.987184
1408   1  8.565936 28.553120 22.842496
1409   1  8.565936 28.553120 25.697808
1410   1  8.565936 28.553120 28.553120
1411   1  8.565936 28.553120 31.408432
1412   1  8.565936 28.553120 34.263744
1413   1  8.565936 28.553120 37.119056
1414   1  8.565936 28.553120 39.974368
1415   1  8.565936 28.553120 42.829680
1416   1  8.565936 28.553120 45.684992
1417   1  8.565936 28.553120 48.540304
1418   1  8.565936 28.553120 51.395616
1419   1  8.565936 28.553120 54.250928
1420   1  8.565936 31.408432  0.000000
1421   1  8.565936 31.408432  2.855312
1422   1  8.565936 31.408432  5.710624
1423   1  8.565936 31.408432  8.565936
1424   1  8.565936 31.408432 11.421248
1425   1  8.565936 31.408432 14.276560
1426   1  8.565936 31.408432 17.131872
1427   1  8.565936 31.408432 19.987184
1428   1  8.565936 31.408432 22.842496
1429   1  8.565936 31.408432 25.697808
1430   1  8.565936 31.408432 28.553120
1431   1  8.565936 31.408432 31.408432
1432   1  8.565936 31.408432 34.263744
1433   1  8.565936 31.408432 37.119056
1434   1  8.565936 31.408432 39.974368
1435   1  8.565936 31.408432 42.829680
1436   1  8.565936 31.408432 45.684992
1437   1  8.565936 31.408432 48.540304
1438   1  8.565936 31.408432 51.395616
1439   1  8.565936 31.408432 54.250928
1440   1  8.565936 34.263744  0.000000
1441   1  8.565936 34.263744  2.855312
1442   1  8.565936 34.263744  5.710624
1443   1  8.565936 34.263744  8.565936
1444   1  8.565936 34.263744 11.421248
1445   1  8.565936 34.263744 14.276560
1446   1  8.565936 34.263744 17.131872
1447   1  8.565936 34.263744 19.987184
1448   1  8.565936 34.263744 22.842496
1449   1  8.565936 34.263744 25.697808
1450   1  8.565936 34.263744 28.553120
1451   1  8.565936 34.263744 31.408432
1452   1  8.565936 34.263744 34.263744
1453   1  8.565936 34.263744 37.119056
1454   1  8.565936 34.263744 39.974368
1455   1  8.565936 34.263744 42.829680
1456   1  8.565936 34.263744 45.684992
1457   1  8.565936 34.263744 48.540304
1458   1  8.565936 34.263744 51.395616
1459   1  8.565936 34.263744 54.250928
1460   1  8.565936 37.119056  0.000000
1461   1  8.565936 37.119056  2.855312
1462   1  8.565936 37.119056  5.710624
1463   1  8.565936 37.119056  8.565936
1464   1  8.565936 37.119056 11.421248
1465   1  8.565936 37.119056 14.276560
1466   1  8.565936 37.119056 17.131872
1467   1  8.565936 37.119056 19.987184
1468   1  8.565936 37.119056 22.842496
1469   1  8.565936 37.119056 25.697808
1470   1  8.565936 37.119056 28.553120
1471   1  8.565936 37.119056 31.408432
1472   1  8.565936 37.119056 34.263744
1473   1  8.565936 37.119056 37.119056
1474   1  8.565936 37.119056 39.974368
1475   1  8.565936 37.119056 42.829680
1476   1  8.565936 37.119056 45.684992
1477   1  8.565936 37.119056 48.540304
1478   1  8.565936 37.119056 51.395616
1479   1  8.565936 37.119056 54.250928
1480   1  8.565936 39.974368  0.000000
1481   1  8.565936 39.974368  2.855312
1482   1  8.565936 39.974368  5.710624
1483   1  8.565936 39.974368  8.565936
1484   1  8.565936 39.974368 11.421248
1485   1  8.565936 39.974368 14.276560
1486   1  8.565936 39.974368 17.131872
1487   1  8.565936 39.974368 19.987184
1488   1  8.565936 39.974368 22.842496
1489   1  8.565936 39.974368 25.697808
1490   1  8.565936 39.974368 28.553120
1491   1  8.565936 39.974368 31.408432
1492   1  8.565936 39.974368 34.263744
1493   1  8.565936 39.974368 37.119056
1494   1  8.565936 39.974368 39.974368
1495   1  8.565936 39.974368 42.829680
1496   1  8.565936 39.974368 45.684992
1497   1  8.565936 39.974368 48.540304
1498   1  8.565936 39.974368 51.395616
1499   1  8.565936 39.974368 54.250928
1500   1  8.565936 42.829680  0.000000
1501   1  8.565936 42.829680  2.855312
1502   1  8.565936 42.829680  5.710624
1503   1  8.565936 42.829680  8.565936
1504   1  8.565936 42.829680 11.421248
1505   1  8.565936 42.829680 14.276560
1506   1  8.565936 42.829680 17.131872
1507   1  8.565936 42.829680 19.987184
1508   1  8.565936 42.829680 22.842496
1509   1  8.565936 42.829680 25.697808
1510   1  8.565936 42.829680 28.553120
1511   1  8.565936 42.829680 31.408432
1512   1  8.565936 42.829680 34.263744
1513   1  8.565936 42.829680 37.119056
1514   1  8.565936 42.829680 39.974368
1515   1  8.565936 42.829680 42.829680
1516   1  8.565936 42.829680 45.684992
1517   1  8.565936 42.829680 48.540304
1518   1  8.565936 42.829680 51.395616
1519   1  8.565936 42.829680 54.250928
1520   1  8.565936 45.684992  0.000000
1521   1  8.565936 45.684992  2.855312
1522   1  8.565936 45.684992  5.710624
1523   1  8.565936 45.684992  8.565936
1524   1  8.565936 45.684992 11.421248
1525   1  8.565936 45.684992 14.276560
1526   1  8.565936 45.684992 17.131872
1527   1  8.565936 45.684992 19.987184
1528   1  8.565936 45.684992 22.842496
1529   1  8.565936 45.684992 25.697808
1530   1  8.565936 45.684992 28.553120
1531   1  8.565936 45.684992 31.408432
1532   1  8.565936 45.684992 34.263744
1533   1  8.565936 45.684992 37.119056
1534   1  8.565936 45.684992 39.974368
1535   1  8.565936 45.684992 42.829680
1536   1  8.565936 45.684992 45.684992
1537   1  8.565936 45.684992 48.540304
1538   1  8.565936 45.684992 51.395616
1539   1  8.565936 45.684992 54.250928
1540   1  8.565936 48.540304  0.000000
1541   1  8.565936 48.540304  2.855312
1542   1  8.565936 48.540304  5.710624
1543   1  8.565936 48.540304  8.565936
1544   1  8.565936 48.540304 11.421248
1545   1  8.565936 48.540304 14.276560
1546   1  8.565936 48.540304 17.131872
1547   1  8.565936 48.540304 19.987184
1548   1  8.565936 48.540304 22.842496
1549   1  8.565936 48.540304 25.697808
1550   1  8.565936 48.540304 28.553120
1551   1  8.565936 48.540304 31.408432
1552   1  8.565936 48.540304 34.263744
1553   1  8.565936 48.540304 37.119056
1554   1  8.565936 48.540304 39.974368
1555   1  8.565936 48.540304 42.829680
1556   1  8.565936 48.540304 45.684992
1557   1  8.565936 48.540304 48.540304
1558   1  8.565936 48.540304 51.395616
1559   1  8.565936 48.540304 54.250928
1560   1  8.565936 51.395616  0.000000
1561   1  8.565936 51.395616  2.855312
1562   1  8.565936 51.395616  5.710624
1563   1  8.565936 51.395616  8.565936
1564   1  8.565936 51.395616 11.421248
1565   1  8.565936 51.395616 14.276560
1566   1  8.565936 51.395616 17.131872
1567   1  8.565936 51.395616 19.987184
1568   1  8.565936 51.395616 22.842496
1569   1  8.565936 51.395616 25.697808
1570   1  8.565936 51.395616 28.553120
1571   1  8.565936 51.395616 31.408432
1572   1  8.565936 51.395616 34.263744
1573   1  8.565936 51.395616 37.119056
1574   1  8.565936 51.395616 39.974368
1575   1  8.565936 51.395616 42.829680
1576   1  8.565936 51.395616 45.684992
1577   1  8.565936 51.395616 48.540304
1578   1  8.565936 51.395616 51.395616
1579   1  8.565936 51.395616 54.250928
1580   1  8.565936 54.250928  0.000000
1581   1  8.565936 54.250928  2.855312
1582   1  8.565936 54.250928  5.710624
1583   1  8.565936 54.250928  8.565936
1584   1  8.565936 54.250928 11.421248
1585   1  8.565936 54.250928 14.276560
1586   1  8.565936 54.250928 17.131872
1587   1  8.565936 54.250928 19.987184
1588   1  8.565936 54.250928 22.842496
1589   1  8.565936 54.250928 25.697808
1590   1  8.565936 54.250928 28.553120
1591   1  8.565936 54.250928 31.408432
1592   1  8.565936 54.250928 34.263744
1593   1  8.565936 54.250928 37.119056
1594   1  8.565936 54.250928 39.974368
1595   1  8.565936 54.250928 42.829680
1596   1  8.565936 54.250928 45.684992
1597   1  8.565936 54.250928 48.540304
1598   1  8.565936 54.250928 51.395616
1599   1  8.565936 54.250928 54.250928
1600   1 11.421248  0.000000  0.000000
1601   1 11.421248  0.000000  2.855312
1602   1 11.421248  0.000000  5.710624
1603   1 11.421248  0.000000  8.565936
1604   1 11.421248  0.000000 11.421248
1605   1 11.421248  0.000000 14.276560
1606   1 11.421248  0.000000 17.131872
1607   1 11.421248  0.000000 19.987184
1608   1 11.421248  0.000000 22.842496
1609   1 11.421248  0.000000 25.697808
1610   1 11.421248  0.000000 28.553120
1611   1 11.421248  0.000000 31.408432
1612   1 11.421248  0.000000 34.263744
1613   1 11.421248  0.000000 37.119056
1614   1 11.421248  0.000000 39.974368
1615   1 11.421248  0.000000 42.829680
1616   1 11.421248  0.000000 45.684992
1617   1 11.421248  0.000000 48.540304
1618   1 11.421248  0.000000 51.395616
1619   1 11.421248  0.000000 54.250928
1620   1 11.421248  2.855312  0.000000
1621   1 11.421248  2.855312  2.855312
1622   1 11.421248  2.855312  5.710624
1623   1 11.421248  2.855312  8.565936
1624   1 11.421248  2.855312 11.421248
1625   1 11.421248  2.855312 14.276560
1626   1 11.421248  2.855312 17.131872
1627   1 11.421248  2.855312 19.987184
1628   1 11.421248  2.855312 22.842496
1629   1 11.421248  2.855312 25.697808
1630   1 11.421248  2.855312 28.553120
1631   1 11.421248  2.855312 31.408432
1632   1 11.421248  2.855312 34.263744
1633   1 11.421248  2.855312 37.119056
1634   1 11.421248  2.855312 39.974368
1635   1 11.421248  2.855312 42.829680
1636   1 11.421248  2.855312 45.684992
1637   1 11.421248  2.855312 48.540304
1638   1 11.421248  2.855312 51.395616
1639   1 11.421248  2.855312 54.250928
1640   1 11.421248  5.710624  0.000000
1641   1 11.421248  5.710624  2.855312
1642   1 11.421248  5.710624  5.710624
1643   1 11.421248  5.710624  8.565936
1644   1 11.421248  5.710624 11.421248
1645   1 11.421248  5.710624 14.276560
1646   1 11.421248  5.710624 17.131872
1647   1 11.421248  5.710624 19.987184
1648   1 11.421248  5.710624 22.842496
1649   1 11.421248  5.710624 25.697808
1650   1 11.421248  5.710624 28.553120
1651   1 11.421248  5.710624 31.408432
1652   1 11.421248  5.710624 34.263744
1653   1 11.421248  5.710624 37.119056
1654   1 11.421248  5.710624 39.974368
1655   1 11.421248  5.710624 42.829680
1656   1 11.421248  5.710624 45.684992
1657   1 11.421248  5.710624 48.540304
1658   1 11.421248  5.710624 51.395616
1659   1 11.421248  5.710624 54.250928
1660   1 11.421248  8.565936  0.000000
1661   1 11.421248  8.565936  2.855312
1662   1 11.421248  8.565936  5.710624
1663   1 11.421248  8.565936  8.565936
1664   1 11.421248  8.565936 11.421248
1665   1 11.421248  8.565936 14.276560
1666   1 11.421248  8.565936 17.131872
1667   1 11.421248  8.565936 19.987184
1668   1 11.421248  8.565936 22.842496
1669   1 11.421248  8.565936 25.697808
1670   1 11.421248  8.565936 28.553120
1671   1 11.421248  8.565936 31.408432
1672   1 11.421248  8.565936 34.263744
1673   1 11.421248  8.565936 37.119056
1674   1 11.421248  8.565936 39.974368
1675   1 11.421248  8.565936 42.829680
1676   1 11.421248  8.565936 45.684992
1677   1 11.421248  8.565936 48.540304
1678   1 11.421248  8.565936 51.395616
1679   1 11.421248  8.565936 54.250928
1680   1 11.421248 11.421248  0.000000
1681   1 11.421248 11.421248  2.855312
1682   1 11.421248 11.421248  5.710624
1683   1 11.421248 11.421248  8.565936
1684   1 11.421248 11.421248 11.421248
1685   1 11.421248 11.421248 14.276560
1686   1 11.421248 11.421248 17.131872
1687   1 11.421248 11.421248 19.987184
1688   1 11.421248 11.421248 22.842496
1689   1 11.421248 11.421248 25.697808
1690   1 11.421248 11.421248 28.553120
1691   1 11.421248 11.421248 31.408432
1692   1 11.421248 11.421248 34.263744
1693   1 11.421248 11.421248 37.119056
1694   1 11.421248 11.421248 39.974368
1695   1 11.421248 11.421248 42.829680
1696   1 11.421248 11.421248 45.684992
1697   1 11.421248 11.421248 48.540304
1698   1 11.421248 11.421248 51.395616
1699   1 11.421248 11.421248 54.250928
1700   1 11.421248 14.276560  0.000000
1701   1 11.421248 14.276560  2.855312
1702   1 11.421248 14.276560  5.710624
1703   1 11.421248 14.276560  8.565936
1704   1 11.421248 14.276560 11.421248
1705   1 11.421248 14.276560 14.276560
1706   1 11.421248 14.276560 17.131872
1707   1 11.421248 14.276560 19.987184
1708   1 11.421248 14.276560 22.842496
1709   1 11.421248 14.276560 25.697808
1710   1 11.421248 14.276560 28.553120
1711   1 11.421248 14.276560 31.408432
1712   1 11.421248 14.276560 34.263744
1713   1 11.421248 14.276560 37.119056
1714   1 11.421248 14.276560 39.974368
1715   1 11.421248 14.276560 42.829680
1716   1 11.421248 14.276560 45.684992
1717   1 11.421248 14.276560 48.540304
1718   1 11.421248 14.276560 51.395616
1719   1 11.421248 14.276560 54.250928
1720   1 11.421248 17.131872  0.000000
1721   1 11.421248 17.131872  2.855312
1722   1 11.421248 17.131872  5.710624
1723   1 11.421248 17.131872  8.565936
1724   1 11.421248 17.131872 11.421248
1725   1 11.421248 17.131872 14.276560
1726   1 11.421248 17.131872 17.131872
1727   1 11.421248 17.131872 19.987184
1728   1 11.421248 17.131872 22.842496
1729   1 11.421248 17.131872 25.697808
1730   1 11.421248 17.131872 28.553120
1731   1 11.421248 17.131872 31.408432
1732   1 11.421248 17.131872 34.263744
1733   1 11.421248 17.131872 37.119056
1734   1 11.421248 17.131872 39.974368
1735   1 11.421248 17.131872 42.829680
1736   1 11.421248 17.131872 45.684992
1737   1 11.421248 17.131872 48.540304
1738   1 11.421248 17.131872 51.395616
1739   1 11.421248 17.131872 54.250928
1740   1 11.421248 19.987184  0.000000
1741   1 11.421248 19.987184  2.855312
1742   1 11.421248 19.987184  5.710624
1743   1 11.421248 19.987184  8.565936
1744   1 11.421248 19.987184 11.421248
1745   1 11.421248 19.987184 14.276560
1746   1 11.421248 19.987184 17.131872
1747   1 11.421248 19.987184 19.987184
1748   1 11.421248 19.987184 22.842496
1749   1 11.421248 19.987184 25.697808
1750   1 11.421248 19.987184 28.553120
1751   1 11.421248 19.987184 31.408432
1752   1 11.421248 19.987184 34.263744
1753   1 11.421248 19.987184 37.119056
1754   1 11.421248 19.987184 39.974368
1755   1 11.421248 19.987184 42.829680
1756   1 11.421248 19.987184 45.684992
1757   1 11.421248 19.987184 48.540304
1758   1 11.421248 19.987184 51.395616
1759   1 11.421248 19.987184 54.250928
1760   1 11.421248 22.842496  0.000000
1761   1 11.421248 22.842496  2.855312
1762   1 11.421248 22.842496  5.710624
1763   1 11.421248 22.842496  8.565936
1764   1 11.421248 22.842496 11.421248
1765   1 11.421248 22.842496 14.276560
1766   1 11.421248 22.842496 17.131872
1767   1 11.421248 22.842496 19.987184
1768   1 11.421248 22.842496 22.842496
1769   1 11.421248 22.842496 25.697808
1770   1 11.421248 22.842496 28.553120
1771   1 11.421248 22.842496 31.408432
1772   1 11.421248 22.842496 34.263744
1773   1 11.421248 22.842496 37.119056
1774   1 11.421248 22.842496 39.974368
1775   1 11.421248 22.842496 42.829680
1776   1 11.421248 22.842496 45.684992
1777   1 11.421248 22.842496 48.540304
1778   1 11.421248 22.842496 51.395616
1779   1 11.421248 22.842496 54.250928
1780   1 11.421248 25.697808  0.000000
1781   1 11.421248 25.697808  2.855312
1782   1 11.421248 25.697808  5.710624
1783   1 11.421248 25.697808  8.565936
1784   1 11.421248 25.697808 11.421248
1785   1 11.421248 25.697808 14.276560
1786   1 11.421248 25.697808 17.131872
1787   1 11.421248 25.697808 19.987184
1788   1 11.421248 25.697808 22.842496
1789   1 11.421248 25.697808 25.697808
1790   1 11.421248 25.697808 28.553120
1791   1 11.421248 25.697808 31.408432
1792   1 11.421248 25.697808 34.263744
1793   1 11.421248 25.697808 37.119056
1794   1 11.421248 25.697808 39.974368
1795   1 11.421248 25.697808 42.829680
1796   1 11.421248 25.697808 45.684992
1797   1 11.421248 25.697808 48.540304
1798   1 11.421248 25.697808 51.395616
1799   1 11.421248 25.697808 54.250928
1800   1 11.421248 28.553120  0.000000
1801   1 11.421248 28.553120  2.855312
1802   1 11.421248 28.553120  5.710624
1803   1 11.421248 28.553120  8.565936
1804   1 11.421248 28.553120 11.421248
1805   1 11.421248 28.553120 14.276560
1806   1 11.421248 28.553120 17.131872
1807   1 11.421248 28.553120 19.987184
1808   1 11.421248 28.553120 22.842496
1809   1 11.421248 28.553120 25.697808
1810   1 11.421248 28.553120 28.553120
1811   1 11.421248 28.553120 31.408432
1812   1 11.421248 28.553120 34.263744
1813   1 11.421248 28.553120 37.119056
1814   1 11.421248 28.553120 39.974368
1815   1 11.421248 28.553120 42.829680
1816   1 11.421248 28.553120 45.684992
1817   1 11.421248 28.553120 48.540304
1818   1 11.421248 28.553120 51.395616
1819   1 11.421248 28.553120 54.250928
1820   1 11.421248 31.408432  0.000000
1821   1 11.421248 31.408432  2.855312
1822   1 11.421248 31.408432  5.710624
1823   1 11.421248 31.408432  8.565936
1824   1 11.421248 31.408432 11.421248
1825   1 11.421248 31.408432 14.276560
1826   1 11.421248 31.408432 17.131872
1827   1 11.421248 31.408432 19.987184
1828   1 11.421248 31.408432 22.842496
1829   1 11.421248 31.408432 25.697808
1830   1 11.421248 31.408432 28.553120
1831   1 11.421248 31.408432 31.408432
1832   1 11.421248 31.408432 34.263744
1833   1 11.421248 31.408432 37.119056
1834   1 11.421248 31.408432 39.974368
1835   1 11.421248 31.408432 42.829680
1836   1 11.421248 31.408432 45.684992
1837   1 11.421248 31.408432 48.540304
1838   1 11.421248 31.408432 51.395616
1839   1 11.421248 31.408432 54.250928
1840   1 11.421248 34.263744  0.000000
1841   1 11.421248 34.263744  2.855312
1842   1 11.421248 34.263744  5.710624
1843   1 11.421248 34.263744  8.565936
1844   1 11.421248 34.263744 11.421248
1845   1 11.421248 34.263744 14.276560
1846   1 11.421248 34.263744 17.131872
1847   1 11.421248 34.263744 19.987184
1848   1 11.421248 34.263744 22.842496
1849   1 11.421248 34.263744 25.697808
1850   1 11.421248 34.263744 28.553120
1851   1 11.421248 34.263744 31.408432
1852   1 11.421248 34.263744 34.263744
1853   1 11.421248 34.263744 37.119056
1854   1 11.421248 34.263744 39.974368
1855   1 11.421248 34.263744 42.829680
1856   1 11.421248 34.263744 45.684992
1857   1 11.421248 34.263744 48.540304
1858   1 11.421248 34.263744 51.395616
1859   1 11.421248 34.263744 54.250928
1860   1 11.421248 37.119056  0.000000
1861   1 11.421248 37.119056  2.855312
1862   1 11.421248 37.119056  5.710624
1863   1 11.421248 37.119056  8.565936
1864   1 11.421248 37.119056 11.421248
1865   1 11.421248 37.119056 14.276560
1866   1 11.421248 37.119056 17.131872
1867   1 11.421248 37.119056 19.987184
1868   1 11.421248 37.119056 22.842496
1869   1 11.421248 37.119056 25.697808
1870   1 11.421248 37.119056 28.553120
1871   1 11.421248 37.119056 31.408432
1872   1 11.421248 37.119056 34.263744
1873   1 11.421248 37.119056 37.119056
1874   1 11.421248 37.119056 39.974368
1875   1 11.421248 37.119056 42.829680
1876   1 11.421248 37.119056 45.684992
1877   1 11.421248 37.119056 48.540304
1878   1 11.421248 37.119056 51.395616
1879   1 11.421248 37.119056 54.250928
1880   1 11.421248 39.974368  0.000000
1881   1 11.421248 39.974368  2.855312
1882   1 11.421248 39.974368  5.710624
1883   1 11.421248 39.974368  8.565936
1884   1 11.421248 39.974368 11.421248
1885   1 11.421248 39.974368 14.276560
1886   1 11.421248 39.974368 17.131872
1887   1 11.421248 39.974368 19.987184
1888   1 11.421248 39.974368 22.842496
1889   1 11.421248 39.974368 25.697808
1890   1 11.421248 39.974368 28.553120
1891   1 11.421248 39.974368 31.408432
1892   1 11.421248 39.974368 34.263744
1893   1 11.421248 39.974368 37.119056
1894   1 11.421248 39.974368 39.974368
1895   1 11.421248 39.974368 42.829680
1896   1 11.421248 39.974368 45.684992
1897   1 11.421248 39.974368 48.540304
1898   1 11.421248 39.974368 51.395616
1899   1 11.421248 39.974368 54.250928
1900   1 11.421248 42.829680  0.000000
1901   1 11.421248 42.829680  2.855312
1902   1 11.421248 42.829680  5.710624
1903   1 11.421248 42.829680  8.565936
1904   1 11.421248 42.829680 11.421248
1905   1 11.421248 42.829680 14.276560
1906   1 11.421248 42.829680 17.131872
1907   1 11.421248 42.829680 19.987184
1908   1 11.421248 42.829680 22.842496
1909   1 11.421248 42.829680 25.697808
1910   1 11.421248 42.829680 28.553120
1911   1 11.421248 42.829680 31.408432
1912   1 11.421248 42.829680 34.263744
1913   1 11.421248 42.829680 37.119056
1914   1 11.421248 42.829680 39.974368
1915   1 11.421248 42.829680 42.829680
1916   1 11.421248 42.829680 45.684992
1917   1 11.421248 42.829680 48.540304
1918   1 11.421248 42.829680 51.395616
1919   1 11.421248 42.829680 54.250928
1920   1 11.421248 45.684992  0.000000
1921   1 11.421248 45.684992  2.855312
1922   1 11.421248 45.684992  5.710624
1923   1 11.421248 45.684992  8.565936
1924   1 11.421248 45.684992 11.421248
1925   1 11.421248 45.684992 14.276560
1926   1 11.421248 45.684992 17.131872
1927   1 11.421248 45.684992 19.987184
1928   1 11.421248 45.684992 22.842496
1929   1 11.421248 45.684992 25.697808
1930   1 11.421248 45.684992 28.553120
1931   1 11.421248 45.684992 31.408432
1932   1 11.421248 45.684992 34.263744
1933   1 11.421248 45.684992 37.119056
1934   1 11.421248 45.684992 39.974368
1935   1 11.421248 45.684992 42.829680
1936   1 11.421248 45.684992 45.684992
1937   1 11.421248 45.684992 48.540304
1938   1 11.421248 45.684992 51.395616
1939   1 11.421248 45.684992 54.250928
1940   1 11.421248 48.540304  0.000000
1941   1 11.421248 48.540304  2.855312
1942   1 11.421248 48.540304  5.710624
1943   1 11.421248 48.540304  8.565936
1944   1 11.421248 48.540304 11.421248
1945   1 11.421248 48.540304 14.276560
1946   1 11.421248 48.540304 17.131872
1947   1 11.421248 48.540304 19.987184
1948   1 11.421248 48.540304 22.842496
1949   1 11.421248 48.540304 25.697808
1950   1 11.421248 48.540304 28.553120
1951   1 11.421248 48.540304 31.408432
1952   1 11.421248 48.540304 34.263744
1953   1 11.421248 48.540304 37.119056
1954   1 11.421248 48.540304 39.974368
1955   1 11.421248 48.540304 42.829680
1956   1 11.421248 48.540304 45.684992
1957   1 11.421248 48.540304 48.540304
1958   1 11.421248 48.540304 51.395616
1959   1 11.421248 48.540304 54.250928
1960   1 11.421248 51.395616  0.000000
1961   1 11.421248 51.395616  2.855312
1962   1 11.421248 51.395616  5.710624
1963   1 11.421248 51.395616  8.565936
1964   1 11.421248 51.395616 11.421248
1965   1 11.421248 51.395616 14.276560
1966   1 11.421248 51.395616 17.131872
1967   1 11.421248 51.395616 19.987184
1968   1 11.421248 51.395616 22.842496
1969   1 11.421248 51.395616 25.697808
1970   1 11.421248 51.395616 28.553120
1971   1 11.421248 51.395616 31.408432
1972   1 11.421248 51.395616 34.263744
1973   1 11.421248 51.395616 37.119056
1974   1 11.421248 51.395616 39.974368
1975   1 11.421248 51.395616 42.829680
1976   1 11.421248 51.395616 45.684992
1977   1 11.421248 51.395616 48.540304
1978   1 11.421248 51.395616 51.395616
1979   1 11.421248 51.395616 54.250928
1980   1 11.421248 54.250928  0.000000
1981   1 11.421248 54.250928  2.855312
1982   1 11.421248 54.250928  5.710624
1983   1 11.421248 54.250928  8.565936
1984   1 11.421248 54.250928 11.421248
1985   1 11.421248 54.250928 14.276560
1986   1 11.421248 54.250928 17.131872
1987   1 11.421248 54.250928 19.987184
1988   1 11.421248 54.250928 22.842496
1989   1 11.421248 54.250928 25.697808
1990   1 11.421248 54.250928 28.553120
1991   1 11.421248 54.250928 31.408432
1992   1 11.421248 54.250928 34.263744
1993   1 11.421248 54.250928 37.119056
1994   1 11.421248 54.250928 39.974368
1995   1 11.421248 54.250928 42.829680
1996   1 11.421248 54.250928 45.684992
1997   1 11.421248 54.250928 48.540304
1998   1 11.421248 54.250928 51.395616
1999   1 11.421248 54.250928 54.250928
2000   1 14.276560  0.000000  0.000000
2001   1 14.276560  0.000000  2.855312
2002   1 14.276560  0.000000  5.710624
2003   1 14.276560  0.000000  8.565936
2004   1 14.276560  0.000000 11.421248
2005   1 14.276560  0.000000 14.276560
2006   1 14.276560  0.000000 17.131872
2007   1 14.276560  0.000000 19.987184
2008   1 14.276560  0.000000 22.842496
2009   1 14.276560  0.000000 25.697808
2010   1 14.276560  0.000000 28.553120
2011   1 14.276560  0.000000 31.408432
2012   1 14.276560  0.000000 34.263744
2013   1 14.276560  0.000000 37.119056
2014   1 14.276560  0.000000 39.974368
2015   1 14.276560  0.000000 42.829680
2016   1 14.276560  0.000000 45.684992
2017   1 14.276560  0.000000 48.540304
2018   1 14.276560  0.000000 51.395616
2019   1 14.276560  0.000000 54.250928
2020   1 14.276560  2.855312  0.000000
2021   1 14.276560  2.855312  2.855312
2022   1 14.276560  2.855312  5.710624
2023   1 14.276560  2.855312  8.565936
2024   1 14.276560  2.855312 11.421248
2025   1 14.276560  2.855312 14.276560
2026   1 14.276560  2.855312 17.131872
2027   1 14.276560  2.855312 19.987184
2028   1 14.276560  2.855312 22.842496
2029   1 14.276560  2.855312 25.697808
2030   1 14.276560  2.855312 28.553120
2031   1 14.276560  2.855312 31.408432
2032   1 14.276560  2.855312 34.263744
2033   1 14.276560  2.855312 37.119056
2034   1 14.276560  2.855312 39.974368
2035   1 14.276560  2.855312 42.829680
2036   1 14.276560  2.855312 45.684992
2037   1 14.276560  2.855312 48.540304
2038   1 14.276560  2.855312 51.395616
2039   1 14.276560  2.855312 54.250928
2040   1 14.276560  5.710624  0.000000
2041   1 14.276560  5.710624  2.855312
2042   1 14.276560  5.710624  5.710624
2043   1 14.276560  5.710624  8.565936
2044   1 14.276560  5.710624 11.421248
2045   1 14.276560  5.710624 14.276560
2046   1 14.276560  5.710624 17.131872
2047   1 14.276560  5.710624 19.987184
2048   1 14.276560  5.710624 22.842496
2049   1 14.276560  5.710624 25.697808
2050   1 14.276560  5.710624 28.553120
2051   1 14.276560  5.710624 31.408432
2052   1 14.276560  5.710624 34.263744
2053   1 14.276560  5.710624 37.119056
2054   1 14.276560  5.710624 39.974368
2055   1 14.276560  5.710624 42.829680
2056   1 14.276560  5.710624 45.684992
2057   1 14.276560  5.710624 48.540304
2058   1 14.276560  5.710624 51.395616
2059   1 14.276560  5.710624 54.250928
2060   1 14.276560  8.565936  0.000000
2061   1 14.276560  8.565936  2.855312
2062   1 14.276560  8.565936  5.710624
2063   1 14.276560  8.565936  8.565936
2064   1 14.276560  8.565936 11.421248
2065   1 14.276560  8.565936 14.276560
2066   1 14.276560  8.565936 17.131872
2067   1 14.276560  8.565936 19.987184
2068   1 14.276560  8.565936 22.842496
2069   1 14.276560  8.565936 25.697808
2070   1 14.276560  8.565936 28.553120
2071   1 14.276560  8.565936 31.408432
2072   1 14.276560  8.565936 34.263744
2073   1 14.276560  8.565936 37.119056
2074   1 14.276560  8.565936 39.974368
2075   1 14.276560  8.565936 42.829680
2076   1 14.276560  8.565936 45.684992
2077   1 14.276560  8.565936 48.540304
2078   1 14.276560  8.565936 51.395616
2079   1 14.276560  8.565936 54.250928
2080   1 14.276560 11.421248  0.000000
2081   1 14.276560 11.421248  2.855312
2082   1 14.276560 11.421248  5.710624
2083   1 14.276560 11.421248  8.565936
2084   1 14.276560 11.421248 11.421248
2085   1 14.276560 11.421248 14.276560
2086   1 14.276560 11.421248 17.131872
2087   1 14.276560 11.421248 19.987184
2088   1 14.276560 11.421248 22.842496
2089   1 14.276560 11.421248 25.697808
2090   1 14.276560 11.421248 28.553120
2091   1 14.276560 11.421248 31.408432
2092   1 14.276560 11.421248 34.263744
2093   1 14.276560 11.421248 37.119056
2094   1 14.276560 11.421248 39.974368
2095   1 14.276560 11.421248 42.829680
2096   1 14.276560 11.421248 45.684992
2097   1 14.276560 11.421248 48.540304
2098   1 14.276560 11.421248 51.395616
2099   1 14.276560 11.421248 54.250928
2100   1 14.276560 14.276560  0.000000
2101   1 14.276560 14.276560  2.855312
2102   1 14.276560 14.276560  5.710624
2103   1 14.276560 14.276560  8.565936
2104   1 14.276560 14.276560 11.421248
2105   1 14.276560 14.276560 14.276560
2106   1 14.276560 14.276560 17.131872
2107   1 14.276560 14.276560 19.987184
2108   1 14.276560 14.276560 22.842496
2109   1 14.276560 14.276560 25.697808
2110   1 14.276560 14.276560 28.553120
2111   1 14.276560 14.276560 31.408432
2112   1 14.276560 14.276560 34.263744
2113   1 14.276560 14.276560 37.119056
2114   1 14.276560 14.276560 39.974368
2115   1 14.276560 14.276560 42.829680
2116   1 14.276560 14.276560 45.684992
2117   1 14.276560 14.276560 48.540304
2118   1 14.276560 14.276560 51.395616
2119   1 14.276560 14.276560 54.250928
2120   1 14.276560 17.131872  0.000000
2121   1 14.276560 17.131872  2.855312
2122   1 14.276560 17.131872  5.710624
2123   1 14.276560 17.131872  8.565936
2124   1 14.276560 17.131872 11.421248
2125   1 14.276560 17.131872 14.276560
2126   1 14.276560 17.131872 17.131872
2127   1 14.276560 17.131872 19.987184
2128   1 14.276560 17.131872 22.842496
2129   1 14.276560 17.131872 25.697808
2130   1 14.276560 17.131872 28.553120
2131   1 14.276560 17.131872 31.408432
2132   1 14.276560 17.131872 34.263744
2133   1 14.276560 17.131872 37.119056
2134   1 14.276560 17.131872 39.974368
2135   1 14.276560 17.131872 42.829680
2136   1 14.276560 17.131872 45.684992
2137   1 14.276560 17.131872 48.540304
2138   1 14.276560 17.131872 51.395616
2139   1 14.276560 17.131872 54.250928
2140   1 14.276560 19.987184  0.000000
2141   1 14.276560 19.987184  2.855312
2142   1 14.276560 19.987184  5.710624
2143   1 14.276560 19.987184  8.565936
2144   1 14.276560 19.987184 11.421248
2145   1 14.276560 19.987184 14.276560
2146   1 14.276560 19.987184 17.131872
2147   1 14.276560 19.987184 19.987184
2148   1 14.276560 19.987184 22.842496
2149   1 14.276560 19.987184 25.697808
2150   1 14.276560 19.987184 28.553120
2151   1 14.276560 19.987184 31.408432
2152   1 14.276560 19.987184 34.263744
2153   1 14.276560 19.987184 37.119056
2154   1 14.276560 19.987184 39.974368
2155   1 14.276560 19.987184 42.829680
2156   1 14.276560 19.987184 45.684992
2157   1 14.276560 19.987184 48.540304
2158   1 14.276560 19.987184 51.395616
2159   1 14.276560 19.987184 54.250928
2160   1 14.276560 22.842496  0.000000
2161   1 14.276560 22.842496  2.855312
2162   1 14.276560 22.842496  5.710624
2163   1 14.276560 22.842496  8.565936
2164   1 14.276560 22.842496 11.421248
2165   1 14.276560 22.842496 14.276560
2166   1 14.276560 22.842496 17.131872
2167   1 14.276560 22.842496 19.987184
2168   1 14.276560 22.842496 22.842496
2169   1 14.276560 22.842496 25.697808
2170   1 14.276560 22.842496 28.553120
2171   1 14.276560 22.842496 31.408432
2172   1 14.276560 22.842496 34.263744
2173   1 14.276560 22.842496 37.119056
2174   1 14.276560 22.842496 39.974368
2175   1 14.276560 22.842496 42.829680
2176   1 14.276560 22.842496 45.684992
2177   1 14.276560 22.842496 48.540304
2178   1 14.276560 22.842496 51.395616
2179   1 14.276560 22.842496 54.250928
2180   1 14.276560 25.697808  0.000000
2181   1 14.276560 25.697808  2.855312
2182   1 14.276560 25.697808  5.710624
2183   1 14.276560 25.697808  8.565936
2184   1 14.276560 25.697808 11.421248
2185   1 14.276560 25.697808 14.276560
2186   1 14.276560 25.697808 17.131872
2187   1 14.276560 25.697808 19.987184
2188   1 14.276560 25.697808 22.842496
2189   1 14.276560 25.697808 25.697808
2190   1 14.276560 25.697808 28.553120
2191   1 14.276560 25.697808 31.408432
2192   1 14.276560 25.697808 34.263744
2193   1 14.276560 25.697808 37.119056
2194   1 14.276560 25.697808 39.974368
2195   1 14.276560 25.697808 42.829680
2196   1 14.276560 25.697808 45.684992
2197   1 14.276560 25.697808 48.540304
2198   1 14.276560 25.697808 51.395616
2199   1 14.276560 25.697808 54.250928
2200   1 14.276560 28.553120  0.000000
2201   1 14.276560 28.553120  2.855312
2202   1 14.276560 28.553120  5.710624
2203   1 14.276560 28.553120  8.565936
2204   1 14.276560 28.553120 11.421248
2205   1 14.276560 28.553120 14.276560
2206   1 14.276560 28.553120 17.131872
2207   1 14.276560 28.553120 19.987184
2208   1 14.276560 28.553120 22.842496
2209   1 14.276560 28.553120 25.697808
2210   1 14.276560 28.553120 28.553120
2211   1 14.276560 28.553120 31.408432
2212   1 14.276560 28.553120 34.263744
2213   1 14.276560 28.553120 37.119056
2214   1 14.276560 28.553120 39.974368
2215   1 14.276560 28.553120 42.829680
2216   1 14.276560 28.553120 45.684992
2217   1 14.276560 28.553120 48.540304
2218   1 14.276560 28.553120 51.395616
2219   1 14.276560 28.553120 54.250928
2220   1 14.276560 31.408432  0.000000
2221   1 14.276560 31.408432  2.855312
2222   1 14.276560 31.408432  5.710624
2223   1 14.276560 31.408432  8.565936
2224   1 14.276560 31.408432 11.421248
2225   1 14.276560 31.408432 14.276560
2226   1 14.276560 31.408432 17.131872
2227   1 14.276560 31.408432 19.987184
2228   1 14.276560 31.408432 22.842496
2229   1 14.276560 31.408432 25.697808
2230   1 14.276560 31.408432 28.553120
2231   1 14.276560 31.408432 31.408432
2232   1 14.276560 31.408432 34.263744
2233   1 14.276560 31.408432 37.119056
2234   1 14.276560 31.408432 39.974368
2235   1 14.276560 31.408432 42.829680
2236   1 14.276560 31.408432 45.684992
2237   1 14.276560 31.408432 48.540304
2238   1 14.276560 31.408432 51.395616
2239   1 14.276560 31.408432 54.250928
2240   1 14.276560 34.263744  0.000000
2241   1 14.276560 34.263744  2.855312
2242   1 14.276560 34.263744  5.710624
2243   1 14.276560 34.263744  8.565936
2244   1 14.276560 34.263744 11.421248
2245   1 14.276560 34.263744 14.276560
2246   1 14.276560 34.263744 17.131872
2247   1 14.276560 34.263744 19.987184
2248   1 14.276560 34.263744 22.842496
2249   1 14.276560 34.263744 25.697808
2250   1 14.276560 34.263744 28.553120
2251   1 14.276560 34.263744 31.408432
2252   1 14.276560 34.263744 34.263744
2253   1 14.276560 34.263744 37.119056
2254   1 14.276560 34.263744 39.974368
2255   1 14.276560 34.263744 42.829680
2256   1 14.276560 34.263744 45.684992
2257   1 14.276560 34.263744 48.540304
2258   1 14.276560 34.263744 51.395616
2259   1 14.276560 34.263744 54.250928
2260   1 14.276560 37.119056  0.000000
2261   1 14.276560 37.119056  2.855312
2262   1 14.276560 37.119056  5.710624
2263   1 14.276560 37.119056  8.565936
2264   1 14.276560 37.119056 11.421248
2265   1 14.276560 37.119056 14.276560
2266   1 14.276560 37.119056 17.131872
2267   1 14.276560 37.119056 19.987184
2268   1 14.276560 37.119056 22.842496
2269   1 14.276560 37.119056 25.697808
2270   1 14.276560 37.119056 28.553120
2271   1 14.276560 37.119056 31.408432
2272   1 14.276560 37.119056 34.263744
2273   1 14.276560 37.119056 37.119056
2274   1 14.276560 37.119056 39.974368
2275   1 14.276560 37.119056 42.829680
2276   1 14.276560 37.119056 45.684992
2277   1 14.276560 37.119056 48.540304
2278   1 14.276560 37.119056 51.395616
2279   1 14.276560 37.119056 54.250928
2280   1 14.276560 39.974368  0.000000
2281   1 14.276560 39.974368  2.855312
2282   1 14.276560 39.974368  5.710624
2283   1 14.276560 39.974368  8.565936
2284   1 14.276560 39.974368 11.421248
2285   1 14.276560 39.974368 14.276560
2286   1 14.276560 39.974368 17.131872
2287   1 14.276560 39.974368 19.987184
2288   1 14.276560 39.974368 22.842496
2289   1 14.276560 39.974368 25.697808
2290   1 14.276560 39.974368 28.553120
2291   1 14.276560 39.974368 31.408432
2292   1 14.276560 39.974368 34.263744
2293   1 14.276560 39.974368 37.119056
2294   1 14.276560 39.974368 39.974368
2295   1 14.276560 39.974368 42.829680
2296   1 14.276560 39.974368 45.684992
2297   1 14.276560 39.974368 48.540304
2298   1 14.276560 39.974368 51.395616
2299   1 14.276560 39.974368 54.250928
2300   1 14.276560 42.829680  0.000000
2301   1 14.276560 42.829680  2.855312
2302   1 14.276560 42.829680  5.710624
2303   1 14.276560 42.829680  8.565936
2304   1 14.276560 42.829680 11.421248
2305   1 14.276560 42.829680 14.276560
2306   1 14.276560 42.829680 17.131872
2307   1 14.276560 42.829680 19.987184
2308   1 14.276560 42.829680 22.842496
2309   1 14.276560 42.829680 25.697808
2310   1 14.276560 42.829680 28.553120
2311   1 14.276560 42.829680 31.408432
2312   1 14.276560 42.829680 34.263744
2313   1 14.276560 42.829680 37.119056
2314   1 14.276560 42.829680 39.974368
2315   1 14.276560 42.829680 42.829680
2316   1 14.276560 42.829680 45.684992
2317   1 14.276560 42.829680 48.540304
2318   1 14.276560 42.829680 51.395616
2319   1 14.276560 42.829680 54.250928
2320   1 14.276560 45.684992  0.000000
2321   1 14.276560 45.684992  2.855312
2322   1 14.276560 45.684992  5.710624
2323   1 14.276560 45.684992  8.565936
2324   1 14.276560 45.684992 11.421248
2325   1 14.276560 45.684992 14.276560
2326   1 14.276560 45.684992 17.131872
2327   1 14.276560 45.684992 19.987184
2328   1 14.276560 45.684992 22.842496
2329   1 14.276560 45.684992 25.697808
2330   1 14.276560 45.684992 28.553120
2331   1 14.276560 45.684992 31.408432
2332   1 14.276560 45.684992 34.263744
2333   1 14.276560 45.684992 37.119056
2334   1 14.276560 45.684992 39.974368
2335   1 14.276560 45.684992 42.829680
2336   1 14.276560 45.684992 45.684992
2337   1 14.276560 45.684992 48.540304
2338   1 14.276560 45.684992 51.395616
2339   1 14.276560 45.684992 54.250928
2340   1 14.276560 48.540304  0.000000
2341   1 14.276560 48.540304  2.855312
2342   1 14.276560 48.540304  5.710624
2343   1 14.276560 48.540304  8.565936
2344   1 14.276560 48.540304 11.421248
2345   1 14.276560 48.540304 14.276560
2346   1 14.276560 48.540304 17.131872
2347   1 14.276560 48.540304 19.987184
2348   1 14.276560 48.540304 22.842496
2349   1 14.276560 48.540304 25.697808
2350   1 14.276560 48.540304 28.553120
2351   1 14.276560 48.540304 31.408432
2352   1 14.276560 48.540304 34.263744
2353   1 14.276560 48.540304 37.119056
2354   1 14.276560 48.540304 39.974368
2355   1 14.276560 48.540304 42.829680
2356   1 14.276560 48.540304 45.684992
2357   1 14.276560 48.540304 48.540304
2358   1 14.276560 48.540304 51.395616
2359   1 14.276560 48.540304 54.250928
2360   1 14.276560 51.395616  0.000000
2361   1 14.276560 51.395616  2.855312
2362   1 14.276560 51.395616  5.710624
2363   1 14.276560 51.395616  8.565936
2364   1 14.276560 51.395616 11.421248
2365   1 14.276560 51.395616 14.276560
2366   1 14.276560 51.395616 17.131872
2367   1 14.276560 51.395616 19.987184
2368   1 14.276560 51.395616 22.842496
2369   1 14.276560 51.395616 25.697808
2370   1 14.276560 51.395616 28.553120
2371   1 14.276560 51.395616 31.408432
2372   1 14.276560 51.395616 34.263744
2373   1 14.276560 51.395616 37.119056
2374   1 14.276560 51.395616 39.974368
2375   1 14.276560 51.395616 42.829680
2376   1 14.276560 51.395616 45.684992
2377   1 14.276560 51.395616 48.540304
2378   1 14.276560 51.395616 51.395616
2379   1 14.276560 51.395616 54.250928
2380   1 14.276560 54.250928  0.000000
2381   1 14.276560 54.250928  2.855312
2382   1 14.276560 54.250928  5.710624
2383   1 14.276560 54.250928  8.565936
2384   1 14.276560 54.250928 11.421248
2385   1 14.276560 54.250928 14.276560
2386   1 14.276560 54.250928 17.131872
2387   1 14.276560 54.250928 19.987184
2388   1 14.276560 54.250928 22.842496
2389   1 14.276560 54.250928 25.697808
2390   1 14.276560 54.250928 28.553120
2391   1 14.276560 54.250928 31.408432
2392   1 14.276560 54.250928 34.263744
2393   1 14.276560 54.250928 37.119056
2394   1 14.276560 54.250928 39.974368
2395   1 14.276560 54.250928 42.829680
2396   1 14.276560 54.250928 45.684992
2397   1 14.276560 54.250928 48.540304
2398   1 14.276560 54.250928 51.395616
2399   1 14.276560 54.250928 54.250928
2400   1 17.131872  0.000000  0.000000
2401   1 17.131872  0.000000  2.855312
2402   1 17.131872  0.000000  5.710624
2403   1 17.131872  0.000000  8.565936
2404   1 17.131872  0.000000 11.421248
2405   1 17.131872  0.000000 14.276560
2406   1 17.131872  0.000000 17.131872
2407   1 17.131872  0.000000 19.987184
2408   1 17.131872  0.000000 22.842496
2409   1 17.131872  0.000000 25.697808
2410   1 17.131872  0.000000 28.553120
2411   1 17.131872  0.000000 31.408432
2412   1 17.131872  0.000000 34.263744
2413   1 17.131872  0.000000 37.119056
2414   1 17.131872  0.000000 39.974368
2415   1 17.131872  0.000000 42.829680
2416   1 17.131872  0.000000 45.684992
2417   1 17.131872  0.000000 48.540304
2418   1 17.131872  0.000000 51.395616
2419   1 17.131872  0.000000 54.250928
2420   1 17.131872  2.855312  0.000000
2421   1 17.131872  2.855312  2.855312
2422   1 17.131872  2.855312  5.710624
2423   1 17.131872  2.855312  8.565936
2424   1 17.131872  2.855312 11.421248
2425   1 17.131872  2.855312 14.276560
2426   1 17.131872  2.855312 17.131872
2427   1 17.131872  2.855312 19.987184
2428   1 17.131872  2.855312 22.842496
2429   1 17.131872  2.855312 25.697808
2430   1 17.131872  2.855312 28.553120
2431   1 17.131872  2.855312 31.408432
2432   1 17.131872  2.855312 34.263744
2433   1 17.131872  2.855312 37.119056
2434   1 17.131872  2.855312 39.974368
2435   1 17.131872  2.855312 42.829680
2436   1 17.131872  2.855312 45.684992
2437   1 17.131872  2.855312 48.540304
2438   1 17.131872  2.855312 51.395616
2439   1 17.131872  2.855312 54.250928
2440   1 17.131872  5.710624  0.000000
2441   1 17.131872  5.710624  2.855312
2442   1 17.131872  5.710624  5.710624
2443   1 17.131872  5.710624  8.565936
2444   1 17.131872  5.710624 11.421248
2445   1 17.131872  5.710624 14.276560
2446   1 17.131872  5.710624 17.131872
2447   1 17.131872  5.710624 19.987184
2448   1 17.131872  5.710624 22.842496
2449   1 17.131872  5.710624 25.697808
2450   1 17.131872  5.710624 28.553120
2451   1 17.131872  5.710624 31.408432
2452   1 17.131872  5.710624 34.263744
2453   1 17.131872  5.710624 37.119056
2454   1 17.131872  5.710624 39.974368
2455   1 17.131872  5.710624 42.829680
2456   1 17.131872  5.710624 45.684992
2457   1 17.131872  5.710624 48.540304
2458   1 17.131872  5.710624 51.395616
2459   1 17.131872  5.710624 54.250928
2460   1 17.131872  8.565936  0.000000
2461   1 17.131872  8.565936  2.855312
2462   1 17.131872  8.565936  5.710624
2463   1 17.131872  8.565936  8.565936
2464   1 17.131872  8.565936 11.421248
2465   1 17.131872  8.565936 14.276560
2466   1 17.131872  8.565936 17.131872
2467   1 17.131872  8.565936 19.987184
2468   1 17.131872  8.565936 22.842496
2469   1 17.131872  8.565936 25.697808
2470   1 17.131872  8.565936 28.553120
2471   1 17.131872  8.565936 31.408432
2472   1 17.131872  8.565936 34.263744
2473   1 17.131872  8.565936 37.119056
2474   1 17.131872  8.565936 39.974368
2475   1 17.131872  8.565936 42.829680
2476   1 17.131872  8.565936 45.684992
2477   1 17.131872  8.565936 48.540304
2478   1 17.131872  8.565936 51.395616
2479   1 17.131872  8.565936 54.250928
2480   1 17.131872 11.421248  0.000000
2481   1 17.131872 11.421248  2.855312
2482   1 17.131872 11.421248  5.710624
2483   1 17.131872 11.421248  8.565936
2484   1 17.131872 11.421248 11.421248
2485   1 17.131872 11.421248 14.276560
2486   1 17.131872 11.421248 17.131872
2487   1 17.131872 11.421248 19.987184
2488   1 17.131872 11.421248 22.842496
2489   1 17.131872 11.421248 25.697808
2490   1 17.131872 11.421248 28.553120
2491   1 17.131872 11.421248 31.408432
2492   1 17.131872 11.421248 34.263744
2493   1 17.131872 11.421248 37.119056
2494   1 17.131872 11.421248 39.974368
2495   1 17.131872 11.421248 42.829680
2496   1 17.131872 11.421248 45.684992
2497   1 17.131872 11.421248 48.540304
2498   1 17.131872 11.421248 51.395616
2499   1 17.131872 11.421248 54.250928
2500   1 17.131872 14.276560  0.000000
2501   1 17.131872 14.276560  2.855312
2502   1 17.131872 14.276560  5.710624
2503   1 17.131872 14.276560  8.565936
2504   1 17.131872 14.276560 11.421248
2505   1 17.131872 14.276560 14.276560
2506   1 17.131872 14.276560 17.131872
2507   1 17.131872 14.276560 19.987184
2508   1 17.131872 14.276560 22.842496
2509   1 17.131872 14.276560 25.697808
2510   1 17.131872 14.276560 28.553120
2511   1 17.131872 14.276560 31.408432
2512   1 17.131872 14.276560 34.263744
2513   1 17.131872 14.276560 37.119056
2514   1 17.131872 14.276560 39.974368
2515   1 17.131872 14.276560 42.829680
2516   1 17.131872 14.276560 45.684992
2517   1 17.131872 14.276560 48.540304
2518   1 17.131872 14.276560 51.395616
2519   1 17.131872 14.276560 54.250928
2520   1 17.131872 17.131872  0.000000
2521   1 17.131872 17.131872  2.855312
2522   1 17.131872 17.131872  5.710624
2523   1 17.131872 17.131872  8.565936
2524   1 17.131872 17.131872 11.421248
2525   1 17.131872 17.131872 14.276560
2526   1 17.131872 17.131872 17.131872
2527   1 17.131872 17.131872 19.987184
2528   1 17.131872 17.131872 22.842496
2529   1 17.131872 17.131872 25.697808
2530   1 17.131872 17.131872 28.553120
2531   1 17.131872 17.131872 31.408432
2532   1 17.131872 17.131872 34.263744
2533   1 17.131872 17.131872 37.119056
2534   1 17.131872 17.131872 39.974368
2535   1 17.131872 17.131872 42.829680
2536   1 17.131872 17.131872 45.684992
2537   1 17.131872 17.131872 48.540304
2538   1 17.131872 17.131872 51.395616
2539   1 17.131872 17.131872 54.250928
2540   1 17.131872 19.987184  0.000000
2541   1 17.131872 19.987184  2.855312
2542   1 17.131872 19.987184  5.710624
2543   1 17.131872 19.987184  8.565936
2544   1 17.131872 19.987184 11.421248
2545   1 17.131872 19.987184 14.276560
2546   1 17.131872 19.987184 17.131872
2547   1 17.131872 19.987184 19.987184
2548   1 17.131872 19.987184 22.842496
2549   1 17.131872 19.987184 25.697808
2550   1 17.131872 19.987184 28.553120
2551   1 17.131872 19.987184 31.408432
2552   1 17.131872 19.987184 34.263744
2553   1 17.131872 19.987184 37.119056
2554   1 17.131872 19.987184 39.974368
2555   1 17.131872 19.987184 42.829680
2556   1 17.131872 19.987184 45.684992
2557   1 17.131872 19.987184 48.540304
2558   1 17.131872 19.987184 51.395616
2559   1 17.131872 19.987184 54.250928
2560   1 17.131872 22.842496  0.000000
2561   1 17.131872 22.842496  2.855312
2562   1 17.131872 22.842496  5.710624
2563   1 17.131872 22.842496  8.565936
2564   1 17.131872 22.842496 11.421248
2565   1 17.131872 22.842496 14.276560
2566   1 17.131872 22.842496 17.131872
2567   1 17.131872 22.842496 19.987184
2568   1 17.131872 22.842496 22.842496
2569   1 17.131872 22.842496 25.697808
2570   1 17.131872 22.842496 28.553120
2571   1 17.131872 22.842496 31.408432
2572   1 17.131872 22.842496 34.263744
2573   1 17.131872 22.842496 37.119056
2574   1 17.131872 22.842496 39.974368
2575   1 17.131872 22.842496 42.829680
2576   1 17.131872 22.842496 45.684992
2577   1 17.131872 22.842496 48.540304
2578   1 17.131872 22.842496 51.395616
2579   1 17.131872 22.842496 54.250928
2580   1 17.131872 25.697808  0.000000
2581   1 17.131872 25.697808  2.855312
2582   1 17.131872 25.697808  5.710624
2583   1 17.131872 25.697808  8.565936
2584   1 17.131872 25.697808 11.421248
2585   1 17.131872 25.697808 14.276560
2586   1 17.131872 25.697808 17.131872
2587   1 17.131872 25.697808 19.987184
2588   1 17.131872 25.697808 22.842496
2589   1 17.131872 25.697808 25.697808
2590   1 17.131872 25.697808 28.553120
2591   1 17.131872 25.697808 31.408432
2592   1 17.131872 25.697808 34.263744
2593   1 17.131872 25.697808 37.119056
2594   1 17.131872 25.697808 39.974368
2595   1 17.131872 25.697808 42.829680
2596   1 17.131872 25.697808 45.684992
2597   1 17.131872 25.697808 48.540304
2598   1 17.131872 25.697808 51.395616
2599   1 17.131872 25.697808 54.250928
2600   1 17.131872 28.553120  0.000000
2601   1 17.131872 28.553120  2.855312
2602   1 17.131872 28.553120  5.710624
2603   1 17.131872 28.553120  8.565936
2604   1 17.131872 28.553120 11.421248
2605   1 17.131872 28.553120 14.276560
2606   1 17.131872 28.553120 17.131872
2607   1 17.131872 28.553120 19.987184
2608   1 17.131872 28.553120 22.842496
2609   1 17.131872 28.553120 25.697808
2610   1 17.131872 28.553120 28.553120
2611   1 17.131872 28.553120 31.408432
2612   1 17.131872 28.553120 34.263744
2613   1 17.131872 28.553120 37.119056
2614   1 17.131872 28.553120 39.974368
2615   1 17.131872 28.553120 42.829680
2616   1 17.131872 28.553120 45.684992
2617   1 17.131872 28.553120 48.540304
2618   1 17.131872 28.553120 51.395616
2619   1 17.131872 28.553120 54.250928
2620   1 17.131872 31.408432  0.000000
2621   1 17.131872 31.408432  2.855312
2622   1 17.131872 31.408432  5.710624
2623   1 17.131872 31.408432  8.565936
2624   1 17.131872 31.408432 11.421248
2625   1 17.131872 31.408432 14.276560
2626   1 17.131872 31.408432 17.131872
2627   1 17.131872 31.408432 19.987184
2628   1 17.131872 31.408432 22.842496
2629   1 17.131872 31.408432 25.697808
2630   1 17.131872 31.408432 28.553120
2631   1 17.131872 31.408432 31.408432
2632   1 17.131872 31.408432 34.263744
2633   1 17.131872 31.408432 37.119056
2634   1 17.131872 31.408432 39.974368
2635   1 17.131872 31.408432 42.829680
2636   1 17.131872 31.408432 45.684992
2637   1 17.131872 31.408432 48.540304
2638   1 17.131872 31.408432 51.395616
2639   1 17.131872 31.408432 54.250928
2640   1 17.131872 34.263744  0.000000
2641   1 17.131872 34.263744  2.855312
2642   1 17.131872 34.263744  5.710624
2643   1 17.131872 34.263744  8.565936
2644   1 17.131872 34.263744 11.421248
2645   1 17.131872 34.263744 14.276560
2646   1 17.131872 34.263744 17.131872
2647   1 17.131872 34.263744 19.987184
2648   1 17.131872 34.263744 22.842496
2649   1 17.131872 34.263744 25.697808
2650   1 17.131872 34.263744 28.553120
2651   1 17.131872 34.263744 31.408432
2652   1 17.131872 34.263744 34.263744
2653   1 17.131872 34.263744 37.119056
2654   1 17.131872 34.263744 39.974368
2655   1 17.131872 34.263744 42.829680
2656   1 17.131872 34.263744 45.684992
2657   1 17.131872 34.263744 48.540304
2658   1 17.131872 34.263744 51.395616
2659   1 17.131872 34.263744 54.250928
2660   1 17.131872 37.119056  0.000000
2661   1 17.131872 37.119056  2.855312
2662   1 17.131872 37.119056  5.710624
2663   1 17.131872 37.119056  8.565936
2664   1 17.131872 37.119056 11.421248
2665   1 17.131872 37.119056 14.276560
2666   1 17.131872 37.119056 17.131872
2667   1 17.131872 37.119056 19.987184
2668   1 17.131872 37.119056 22.842496
2669   1 17.131872 37.119056 25.697808
2670   1 17.131872 37.119056 28.553120
2671   1 17.131872 37.119056 31.408432
2672   1 17.131872 37.119056 34.263744
2673   1 17.131872 37.119056 37.119056
2674   1 17.131872 37.119056 39.974368
2675   1 17.131872 37.119056 42.829680
2676   1 17.131872 37.119056 45.684992
2677   1 17.131872 37.119056 48.540304
2678   1 17.131872 37.119056 51.395616
2679   1 17.131872 37.119056 54.250928
2680   1 17.131872 39.974368  0.000000
2681   1 17.131872 39.974368  2.855312
2682   1 17.131872 39.974368  5.710624
2683   1 17.131872 39.974368  8.565936
2684   1 17.131872 39.974368 11.421248
2685   1 17.131872 39.974368 14.276560
2686   1 17.131872 39.974368 17.131872
2687   1 17.131872 39.974368 19.987184
2688   1 17.131872 39.974368 22.842496
2689   1 17.131872 39.974368 25.697808
2690   1 17.131872 39.974368 28.553120
2691   1 17.131872 39.974368 31.408432
2692   1 17.131872 39.974368 34.263744
2693   1 17.131872 39.974368 37.119056
2694   1 17.131872 39.974368 39.974368
2695   1 17.131872 39.974368 42.829680
2696   1 17.131872 39.974368 45.684992
2697   1 17.131872 39.974368 48.540304
2698   1 17.131872 39.974368 51.395616
2699   1 17.131872 39.974368 54.250928
2700   1 17.131872 42.829680  0.000000
2701   1 17.131872 42.829680  2.855312
2702   1 17.131872 42.829680  5.710624
2703   1 17.131872 42.829680  8.565936
2704   1 17.131872 42.829680 11.421248
2705   1 17.131872 42.829680 14.276560
2706   1 17.131872 42.829680 17.131872
2707   1 17.131872 42.829680 19.987184
2708   1 17.131872 42.829680 22.842496
2709   1 17.131872 42.829680 25.697808
2710   1 17.131872 42.829680 28.553120
2711   1 17.131872 42.829680 31.408432
2712   1 17.131872 42.829680 34.263744
2713   1 17.131872 42.829680 37.119056
2714   1 17.131872 42.829680 39.974368
2715   1 17.131872 42.829680 42.829680
2716   1 17.131872 42.829680 45.684992
2717   1 17.131872 42.829680 48.540304
2718   1 17.131872 42.829680 51.395616
2719   1 17.131872 42.829680 54.250928
2720   1 17.131872 45.684992  0.000000
2721   1 17.131872 45.684992  2.855312
2722   1 17.131872 45.684992  5.710624
2723   1 17.131872 45.684992  8.565936
2724   1 17.131872 45.684992 11.421248
2725   1 17.131872 45.684992 14.276560
2726   1 17.131872 45.684992 17.131872
2727   1 17.131872 45.684992 19.987184
2728   1 17.131872 45.684992 22.842496
2729   1 17.131872 45.684992 25.697808
2730   1 17.131872 45.684992 28.553120
2731   1 17.131872 45.684992 31.408432
2732   1 17.131872 45.684992 34.263744
2733   1 17.131872 45.684992 37.119056
2734   1 17.131872 45.684992 39.974368
2735   1 17.131872 45.684992 42.829680
2736   1 17.131872 45.684992 45.684992
2737   1 17.131872 45.684992 48.540304
2738   1 17.131872 45.684992 51.395616
2739   1 17.131872 45.684992 54.250928
2740   1 17.131872 48.540304  0.000000
2741   1 17.131872 48.540304  2.855312
2742   1 17.131872 48.540304  5.710624
2743   1 17.131872 48.540304  8.565936
2744   1 17.131872 48.540304 11.421248
2745   1 17.131872 48.540304 14.276560
2746   1 17.131872 48.540304 17.131872
2747   1 17.131872 48.540304 19.987184
2748   1 17.131872 48.540304 22.842496
2749   1 17.131872 48.540304 25.697808
2750   1 17.131872 48.540304 28.553120
2751   1 17.131872 48.540304 31.408432
2752   1 17.131872 48.540304 34.263744
2753   1 17.131872 48.540304 37.119056
2754   1 17.131872 48.540304 39.974368
2755   1 17.131872 48.540304 42.829680
2756   1 17.131872 48.540304 45.684992
2757   1 17.131872 48.540304 48.540304
2758   1 17.131872 48.540304 51.395616
2759   1 17.131872 48.540304 54.250928
2760   1 17.131872 51.395616  0.000000
2761   1 17.131872 51.395616  2.855312
2762   1 17.131872 51.395616  5.710624
2763   1 17.131872 51.395616  8.565936
2764   1 17.131872 51.395616 11.421248
2765   1 17.131872 51.395616 14.276560
2766   1 17.131872 51.395616 17.131872
2767   1 17.131872 51.395616 19.987184
2768   1 17.131872 51.395616 22.842496
2769   1 17.131872 51.395616 25.697808
2770   1 17.131872 51.395616 28.553120
2771   1 17.131872 51.395616 31.408432
2772   1 17.131872 51.395616 34.263744
2773   1 17.131872 51.395616 37.119056
2774   1 17.131872 51.395616 39.974368
2775   1 17.131872 51.395616 42.829680
2776   1 17.131872 51.395616 45.684992
2777   1 17.131872 51.395616 48.540304
2778   1 17.131872 51.395616 51.395616
2779   1 17.131872 51.395616 54.250928
2780   1 17.131872 54.250928  0.000000
2781   1 17.131872 54.250928  2.855312
2782   1 17.131872 54.250928  5.710624
2783   1 17.131872 54.250928  8.565936
2784   1 17.131872 54.250928 11.421248
2785   1 17.131872 54.250928 14.276560
2786   1 17.131872 54.250928 17.131872
2787   1 17.131872 54.250928 19.987184
2788   1 17.131872 54.250928 22.842496
2789   1 17.131872 54.250928 25.697808
2790   1 17.131872 54.250928 28.553120
2791   1 17.131872 54.250928 31.408432
2792   1 17.131872 54.250928 34.263744
2793   1 17.131872 54.250928 37.119056
2794   1 17.131872 54.250928 39.974368
2795   1 17.131872 54.250928 42.829680
2796   1 17.131872 54.250928 45.684992
2797   1 17.131872 54.250928 48.540304
2798   1 17.131872 54.250928 51.395616
2799   1 17.131872 54.250928 54.250928
2800   1 19.987184  0.000000  0.000000
2801   1 19.987184  0.000000  2.855312
2802   1 19.987184  0.000000  5.710624
2803   1 19.987184  0.000000  8.565936
2804   1 19.987184  0.000000 11.421248
2805   1 19.987184  0.000000 14.276560
2806   1 19.987184  0.000000 17.131872
2807   1 19.987184  0.000000 19.987184
2808   1 19.987184  0.000000 22.842496
2809   1 19.987184  0.000000 25.697808
2810   1 19.987184  0.000000 28.553120
2811   1 19.987184  0.000000 31.408432
2812   1 19.987184  0.000000 34.263744
2813   1 19.987184  0.000000 37.119056
2814   1 19.987184  0.000000 39.974368
2815   1 19.987184  0.000000 42.829680
2816   1 19.987184  0.000000 45.684992
2817   1 19.987184  0.000000 48.540304
2818   1 19.987184  0.000000 51.395616
2819   1 19.987184  0.000000 54.250928
2820   1 19.987184  2.855312  0.000000
2821   1 19.987184  2.855312  2.855312
2822   1 19.987184  2.855312  5.710624
2823   1 19.987184  2.855312  8.565936
2824   1 19.987184  2.855312 11.421248
2825   1 19.987184  2.855312 14.276560
2826   1 19.987184  2.855312 17.131872
2827   1 19.987184  2.855312 19.987184
2828   1 19.987184  2.855312 22.842496
2829   1 19.987184  2.855312 25.697808
2830   1 19.987184  2.855312 28.553120
2831   1 19.987184  2.855312 31.408432
2832   1 19.987184  2.855312 34.263744
2833   1 19.987184  2.855312 37.119056
2834   1 19.987184  2.855312 39.974368
2835   1 19.987184  2.855312 42.829680
2836   1 19.987184  2.855312 45.684992
2837   1 19.987184  2.855312 48.540304
2838   1 19.987184  2.855312 51.395616
2839   1 19.987184  2.855312 54.250928
2840   1 19.987184  5.710624  0.000000
2841   1 19.987184  5.710624  2.855312
2842   1 19.987184  5.710624  5.710624
2843   1 19.987184  5.710624  8.565936
2844   1 19.987184  5.710624 11.421248
2845   1 19.987184  5.710624 14.276560
2846   1 19.987184  5.710624 17.131872
2847   1 19.987184  5.710624 19.987184
2848   1 19.987184  5.710624 22.842496
2849   1 19.987184  5.710624 25.697808
2850   1 19.987184  5.710624 28.553120
2851   1 19.987184  5.710624 31.408432
2852   1 19.987184  5.710624 34.263744
2853   1 19.987184  5.710624 37.119056
2854   1 19.987184  5.710624 39.974368
2855   1 19.987184  5.710624 42.829680
2856   1 19.987184  5.710624 45.684992
2857   1 19.987184  5.710624 48.540304
2858   1 19.987184  5.710624 51.395616
2859   1 19.987184  5.710624 54.250928
2860   1 19.987184  8.565936  0.000000
2861   1 19.987184  8.565936  2.855312
2862   1 19.987184  8.565936  5.710624
2863   1 19.987184  8.565936  8.565936
2864   1 19.987184  8.565936 11.421248
2865   1 19.987184  8.565936 14.276560
2866   1 19.987184  8.565936 17.131872
2867   1 19.987184  8.565936 19.987184
2868   1 19.987184  8.565936 22.842496
2869   1 19.987184  8.565936 25.697808
2870   1 19.987184  8.565936 28.553120
2871   1 19.987184  8.565936 31.408432
2872   1 19.987184  8.565936 34.263744
2873   1 19.987184  8.565936 37.119056
2874   1 19.987184  8.565936 39.974368
2875   1 19.987184  8.565936 42.829680
2876   1 19.987184  8.565936 45.684992
2877   1 19.987184  8.565936 48.540304
2878   1 19.987184  8.565936 51.395616
2879   1 19.987184  8.565936 54.250928
2880   1 19.987184 11.421248  0.000000
2881   1 19.987184 11.421248  2.855312
2882   1 19.987184 11.421248  5.710624
2883   1 19.987184 11.421248  8.565936
2884   1 19.987184 11.421248 11.421248
2885   1 19.987184 11.421248 14.276560
2886   1 19.987184 11.421248 17.131872
2887   1 19.987184 11.421248 19.987184
2888   1 19.987184 11.421248 22.842496
2889   1 19.987184 11.421248 25.697808
2890   1 19.987184 11.421248 28.553120
2891   1 19.987184 11.421248 31.408432
2892   1 19.987184 11.421248 34.263744
2893   1 19.987184 11.421248 37.119056
2894   1 19.987184 11.421248 39.974368
2895   1 19.987184 11.421248 42.829680
2896   1 19.987184 11.421248 45.684992
2897   1 19.987184 11.421248 48.540304
2898   1 19.987184 11.421248 51.395616
2899   1 19.987184 11.421248 54.250928
2900   1 19.987184 14.276560  0.000000
2901   1 19.987184 14.276560  2.855312
2902   1 19.987184 14.276560  5.710624
2903   1 19.987184 14.276560  8.565936
2904   1 19.987184 14.276560 11.421248
2905   1 19.987184 14.276560 14.276560
2906   1 19.987184 14.276560 17.131872
2907   1 19.987184 14.276560 19.987184
2908   1 19.987184 14.276560 22.842496
2909   1 19.987184 14.276560 25.697808
2910   1 19.987184 14.276560 28.553120
2911   1 19.987184 14.276560 31.408432
2912   1 19.987184 14.276560 34.263744
2913   1 19.987184 14.276560 37.119056
2914   1 19.987184 14.276560 39.974368
2915   1 19.987184 14.276560 42.829680
2916   1 19.987184 14.276560 45.684992
2917   1 19.987184 14.276560 48.540304
2918   1 19.987184 14.276560 51.395616
2919   1 19.987184 14.276560 54.250928
2920   1 19.987184 17.131872  0.000000
2921   1 19.987184 17.131872  2.855312
2922   1 19.987184 17.131872  5.710624
2923   1 19.987184 17.131872  8.565936
2924   1 19.987184 17.131872 11.421248
2925   1 19.987184 17.131872 14.276560
2926   1 19.987184 17.131872 17.131872
2927   1 19.987184 17.131872 19.987184
2928   1 19.987184 17.131872 22.842496
2929   1 19.987184 17.131872 25.697808
2930   1 19.987184 17.131872 28.553120
2931   1 19.987184 17.131872 31.408432
2932   1 19.987184 17.131872 34.263744
2933   1 19.987184 17.131872 37.119056
2934   1 19.987184 17.131872 39.974368
2935   1 19.987184 17.131872 42.829680
2936   1 19.987184 17.131872 45.684992
2937   1 19.987184 17.131872 48.540304
2938   1 19.987184 17.131872 51.395616
2939   1 19.987184 17.131872 54.250928
2940   1 19.987184 19.987184  0.000000
2941   1 19.987184 19.987184  2.855312
2942   1 19.987184 19.987184  5.710624
2943   1 19.987184 19.987184  8.565936
2944   1 19.987184 19.987184 11.421248
2945   1 19.987184 19.987184 14.276560
2946   1 19.987184 19.987184 17.131872
2947   1 19.987184 19.987184 19.987184
2948   1 19.987184 19.987184 22.842496
2949   1 19.987184 19.987184 25.697808
2950   1 19.987184 19.987184 28.553120
2951   1 19.987184 19.987184 31.408432
2952   1 19.987184 19.987184 34.263744
2953   1 19.987184 19.987184 37.119056
2954   1 19.987184 19.987184 39.974368
2955   1 19.987184 19.987184 42.829680
2956   1 19.987184 19.987184 45.684992
2957   1 19.987184 19.987184 48.540304
2958   1 19.987184 19.987184 51.395616
2959   1 19.987184 19.987184 54.250928
2960   1 19.987184 22.842496  0.000000
2961   1 19.987184 22.842496  2.855312
2962   1 19.987184 22.842496  5.710624
2963   1 19.987184 22.842496  8.565936
2964   1 19.987184 22.842496 11.421248
2965   1 19.987184 22.842496 14.276560
2966   1 19.987184 22.842496 17.131872
2967   1 19.987184 22.842496 19.987184
2968   1 19.987184 22.842496 22.842496
2969   1 19.987184 22.842496 25.697808
2970   1 19.987184 22.842496 28.553120
2971   1 19.987184 22.842496 31.408432
2972   1 19.987184 22.842496 34.263744
2973   1 19.987184 22.842496 37.119056
2974   1 19.987184 22.842496 39.974368
2975   1 19.987184 22.842496 42.829680
2976   1 19.987184 22.842496 45.684992
2977   1 19.987184 22.842496 48.540304
2978   1 19.987184 22.842496 51.395616
2979   1 19.987184 22.842496 54.250928
2980   1 19.987184 25.697808  0.000000
2981   1 19.987184 25.697808  2.855312
2982   1 19.987184 25.697808  5.710624
2983   1 19.987184 25.697808  8.565936
2984   1 19.987184 25.697808 11.421248
2985   1 19.987184 25.697808 14.276560
2986   1 19.987184 25.697808 17.131872
2987   1 19.987184 25.697808 19.987184
2988   1 19.987184 25.697808 22.842496
2989   1 19.987184 25.697808 25.697808
2990   1 19.987184 25.697808 28.553120
2991   1 19.987184 25.697808 31.408432
2992   1 19.987184 25.697808 34.263744
2993   1 19.987184 25.697808 37.119056
2994   1 19.987184 25.697808 39.974368
2995   1 19.987184 25.697808 42.829680
2996   1 19.987184 25.697808 45.684992
2997   1 19.987184 25.697808 48.540304
2998   1 19.987184 25.697808 51.395616
2999   1 19.987184 25.697808 54.250928
3000   1 19.987184 28.553120  0.000000
3001   1 19.987184 28.553120  2.855312
3002   1 19.987184 28.553120  5.710624
3003   1 19.987184 28.553120  8.565936
3004   1 19.987184 28.553120 11.421248
3005   1 19.987184 28.553120 14.276560
3006   1 19.987184 28.553120 17.131872
3007   1 19.987184 28.553120 19.987184
3008   1 19.987184 28.553120 22.842496
3009   1 19.987184 28.553120 25.697808
3010   1 19.987184 28.553120 28.553120
3011   1 19.987184 28.553120 31.408432
3012   1 19.987184 28.553120 34.263744
3013   1 19.987184 28.553120 37.119056
3014   1 19.987184 28.553120 39.974368
3015   1 19.987184 28.553120 42.829680
3016   1 19.987184 28.553120 45.684992
3017   1 19.987184 28.553120 48.540304
3018   1 19.987184 28.553120 51.395616
3019   1 19.987184 28.553120 54.250928
3020   1 19.987184 31.408432  0.000000
3021   1 19.987184 31.408432  2.855312
3022   1 19.987184 31.408432  5.710624
3023   1 19.987184 31.408432  8.565936
3024   1 19.987184 31.408432 11.421248
3025   1 19.987184 31.408432 14.276560
3026   1 19.987184 31.408432 17.131872
3027   1 19.987184 31.408432 19.987184
3028   1 19.987184 31.408432 22.842496
3029   1 19.987184 31.408432 25.697808
3030   1 19.987184 31.408432 28.553120
3031   1 19.987184 31.408432 31.408432
3032   1 19.987184 31.408432 34.263744
3033   1 19.987184 31.408432 37.119056
3034   1 19.987184 31.408432 39.974368
3035   1 19.987184 31.408432 42.829680
3036   1 19.987184 31.408432 45.684992
3037   1 19.987184 31.408432 48.540304
3038   1 19.987184 31.408432 51.395616
3039   1 19.987184 31.408432 54.250928
3040   1 19.987184 34.263744  0.000000
3041   1 19.987184 34.263744  2.855312
3042   1 19.987184 34.263744  5.710624
3043   1 19.987184 34.263744  8.565936
3044   1 19.987184 34.263744 11.421248
3045   1 19.987184 34.263744 14.276560
3046   1 19.987184 34.263744 17.131872
3047   1 19.987184 34.263744 19.987184
3048   1 19.987184 34.263744 22.842496
3049   1 19.987184 34.263744 25.697808
3050   1 19.987184 34.263744 28.553120
3051   1 19.987184 34.263744 31.408432
3052   1 19.987184 34.263744 34.263744
3053   1 19.987184 34.263744 37.119056
3054   1 19.987184 34.263744 39.974368
3055   1 19.987184 34.263744 42.829680
3056   1 19.987184 34.263744 45.684992
3057   1 19.987184 34.263744 48.540304
3058   1 19.987184 34.263744 51.395616
3059   1 19.987184 34.263744 54.250928
3060   1 19.987184 37.119056  0.000000
3061   1 19.987184 37.119056  2.855312
3062   1 19.987184 37.119056  5.710624
3063   1 19.987184 37.119056  8.565936
3064   1 19.987184 37.119056 11.421248
3065   1 19.987184 37.119056 14.276560
3066   1 19.987184 37.119056 17.131872
3067   1 19.987184 37.119056 19.987184
3068   1 19.987184 37.119056 22.842496
3069   1 19.987184 37.119056 25.697808
3070   1 19.987184 37.119056 28.553120
3071   1 19.987184 37.119056 31.408432
3072   1 19.987184 37.119056 34.263744
3073   1 19.987184 37.119056 37.119056
3074   1 19.987184 37.119056 39.974368
3075   1 19.987184 37.119056 42.829680
3076   1 19.987184 37.119056 45.684992
3077   1 19.987184 37.119056 48.540304
3078   1 19.987184 37.119056 51.395616
3079   1 19.987184 37.119056 54.250928
3080   1 19.987184 39.974368  0.000000
3081   1 19.987184 39.974368  2.855312
3082   1 19.987184 39.974368  5.710624
3083   1 19.987184 39.974368  8.565936
3084   1 19.987184 39.974368 11.421248
3085   1 19.987184 39.974368 14.276560
3086   1 19.987184 39.974368 17.131872
3087   1 19.987184 39.974368 19.987184
3088   1 19.987184 39.974368 22.842496
3089   1 19.987184 39.974368 25.697808
3090   1 19.987184 39.974368 28.553120
3091   1 19.987184 39.974368 31.408432
3092   1 19.987184 39.974368 34.263744
3093   1 19.987184 39.974368 37.119056
3094   1 19.987184 39.974368 39.974368
3095   1 19.987184 39.974368 42.829680
3096   1 19.987184 39.974368 45.684992
3097   1 19.987184 39.974368 48.540304
3098   1 19.987184 39.974368 51.395616
3099   1 19.987184 39.974368 54.250928
3100   1 19.987184 42.829680  0.000000
3101   1 19.987184 42.829680  2.855312
3102   1 19.987184 42.829680  5.710624
3103   1 19.987184 42.829680  8.565936
3104   1 19.987184 42.829680 11.421248
3105   1 19.987184 42.829680 14.276560
3106   1 19.987184 42.829680 17.131872
3107   1 19.987184 42.829680 19.987184
3108   1 19.987184 42.829680 22.842496
3109   1 19.987184 42.829680 25.697808
3110   1 19.987184 42.829680 28.553120
3111   1 19.987184 42.829680 31.408432
3112   1 19.987184 42.829680 34.263744
3113   1 19.987184 42.829680 37.119056
3114   1 19.987184 42.829680 39.974368
3115   1 19.987184 42.829680 42.829680
3116   1 19.987184 42.829680 45.684992
3117   1 19.987184 42.829680 48.540304
3118   1 19.987184 42.829680 51.395616
3119   1 19.987184 42.829680 54.250928
3120   1 19.987184 45.684992  0.000000
3121   1 19.987184 45.684992  2.855312
3122   1 19.987184 45.684992  5.710624
3123   1 19.987184 45.684992  8.565936
3124   1 19.987184 45.684992 11.421248
3125   1 19.987184 45.684992 14.276560
3126   1 19.987184 45.684992 17.131872
3127   1 19.987184 45.684992 19.987184
3128   1 19.987184 45.684992 22.842496
3129   1 19.987184 45.684992 25.697808
3130   1 19.987184 45.684992 28.553120
3131   1 19.987184 45.684992 31.408432
3132   1 19.987184 45.684992 34.263744
3133   1 19.987184 45.684992 37.119056
3134   1 19.987184 45.684992 39.974368
3135   1 19.987184 45.684992 42.829680
3136   1 19.987184 45.684992 45.684992
3137   1 19.987184 45.684992 48.540304
3138   1 19.987184 45.684992 51.395616
3139   1 19.987184 45.684992 54.250928
3140   1 19.987184 48.540304  0.000000
3141   1 19.987184 48.540304  2.855312
3142   1 19.987184 48.540304  5.710624
3143   1 19.987184 48.540304  8.565936
3144   1 19.987184 48.540304 11.421248
3145   1 19.987184 48.540304 14.276560
3146   1 19.987184 48.540304 17.131872
3147   1 19.987184 48.540304 19.987184
3148   1 19.987184 48.540304 22.842496
3149   1 19.987184 48.540304 25.697808
3150   1 19.987184 48.540304 28.553120
3151   1 19.987184 48.540304 31.408432
3152   1 19.987184 48.540304 34.263744
3153   1 19.987184 48.540304 37.119056
3154   1 19.987184 48.540304 39.974368
3155   1 19.987184 48.540304 42.829680
3156   1 19.987184 48.540304 45.684992
3157   1 19.987184 48.540304 48.540304
3158   1 19.987184 48.540304 51.395616
3159   1 19.987184 48.540304 54.250928
3160   1 19.987184 51.395616  0.000000
3161   1 19.987184 51.395616  2.855312
3162   1 19.987184 51.395616  5.710624
3163   1 19.987184 51.395616  8.565936
3164   1 19.987184 51.395616 11.421248
3165   1 19.987184 51.395616 14.276560
3166   1 19.987184 51.395616 17.131872
3167   1 19.987184 51.395616 19.987184
3168   1 19.987184 51.395616 22.842496
3169   1 19.987184 51.395616 25.697808
3170   1 19.987184 51.395616 28.553120
3171   1 19.987184 51.395616 31.408432
3172   1 19.987184 51.395616 34.263744
3173   1 19.987184 51.395616 37.119056
3174   1 19.987184 51.395616 39.974368
3175   1 19.987184 51.395616 42.829680
3176   1 19.987184 51.395616 45.684992
3177   1 19.987184 51.395616 48.540304
3178   1 19.987184 51.395616 51.395616
3179   1 19.987184 51.395616 54.250928
3180   1 19.987184 54.250928  0.000000
3181   1 19.987184 54.250928  2.855312
3182   1 19.987184 54.250928  5.710624
3183   1 19.987184 54.250928  8.565936
3184   1 19.987184 54.250928 11.421248
3185   1 19.987184 54.250928 14.276560
3186   1 19.987184 54.250928 17.131872
3187   1 19.987184 54.250928 19.987184
3188   1 19.987184 54.250928 22.842496
3189   1 19.987184 54.250928 25.697808
3190   1 19.987184 54.250928 28.553120
3191   1 19.987184 54.250928 31.408432
3192   1 19.987184 54.250928 34.263744
3193   1 19.987184 54.250928 37.119056
3194   1 19.987184 54.250928 39.974368
3195   1 19.987184 54.250928 42.829680
3196   1 19.987184 54.250928 45.684992
3197   1 19.987184 54.250928 48.540304
3198   1 19.987184 54.250928 51.395616
3199   1 19.987184 54.250928 54.250928
3200   1 22.842496  0.000000  0.000000
3201   1 22.842496  0.000000  2.855312
3202   1 22.842496  0.000000  5.710624
3203   1 22.842496  0.000000  8.565936
3204   1 22.842496  0.000000 11.421248
3205   1 22.842496  0.000000 14.276560
3206   1 22.842496  0.000000 17.131872
3207   1 22.842496  0.000000 19.987184
3208   1 22.842496  0.000000 22.842496
3209   1 22.842496  0.000000 25.697808
3210   1 22.842496  0.000000 28.553120
3211   1 22.842496  0.000000 31.408432
3212   1 22.842496  0.000000 34.263744
3213   1 22.842496  0.000000 37.119056
3214   1 22.842496  0.000000 39.974368
3215   1 22.842496  0.000000 42.829680
3216   1 22.842496  0.000000 45.684992
3217   1 22.842496  0.000000 48.540304
3218   1 22.842496  0.000000 51.395616
3219   1 22.842496  0.000000 54.250928
3220   1 22.842496  2.855312  0.000000
3221   1 22.842496  2.855312  2.855312
3222   1 22.842496  2.855312  5.710624
3223   1 22.842496  2.855312  8.565936
3224   1 22.842496  2.855312 11.421248
3225   1 22.842496  2.855312 14.276560
3226   1 22.842496  2.855312 17.131872
3227   1 22.842496  2.855312 19.987184
3228   1 22.842496  2.855312 22.842496
3229   1 22.842496  2.855312 25.697808
3230   1 22.842496  2.855312 28.553120
3231   1 22.842496  2.855312 31.408432
3232   1 22.842496  2.855312 34.263744
3233   1 22.842496  2.855312 37.119056
3234   1 22.842496  2.855312 39.974368
3235   1 22.842496  2.855312 42.829680
3236   1 22.842496  2.855312 45.684992
3237   1 22.842496  2.855312 48.540304
3238   1 22.842496  2.855312 51.395616
3239   1 22.842496  2.855312 54.250928
3240   1 22.842496  5.710624  0.000000
3241   1 22.842496  5.710624  2.855312
3242   1 22.842496  5.710624  5.710624
3243   1 22.842496  5.710624  8.565936
3244   1 22.842496  5.710624 11.421248
3245   1 22.842496  5.710624 14.276560
3246   1 22.842496  5.710624 17.131872
3247   1 22.842496  5.710624 19.987184
3248   1 22.842496  5.710624 22.842496
3249   1 22.842496  5.710624 25.697808
3250   1 22.842496  5.710624 28.553120
3251   1 22.842496  5.710624 31.408432
3252   1 22.842496  5.710624 34.263744
3253   1 22.842496  5.710624 37.119056
3254   1 22.842496  5.710624 39.974368
3255   1 22.842496  5.710624 42.829680
3256   1 22.842496  5.710624 45.684992
3257   1 22.842496  5.710624 48.540304
3258   1 22.842496  5.710624 51.395616
3259   1 22.842496  5.710624 54.250928
3260   1 22.842496  8.565936  0.000000
3261   1 22.842496  8.565936  2.855312
3262   1 22.842496  8.565936  5.710624
3263   1 22.842496  8.565936  8.565936
3264   1 22.842496  8.565936 11.421248
3265   1 22.842496  8.565936 14.276560
3266   1 22.842496  8.565936 17.131872
3267   1 22.842496  8.565936 19.987184
3268   1 22.842496  8.565936 22.842496
3269   1 22.842496  8.565936 25.697808
3270   1 22.842496  8.565936 28.553120
3271   1 22.842496  8.565936 31.408432
3272   1 22.842496  8.565936 34.263744
3273   1 22.842496  8.565936 37.119056
3274   1 22.842496  8.565936 39.974368
3275   1 22.842496  8.565936 42.829680
3276   1 22.842496  8.565936 45.684992
3277   1 22.842496  8.565936 48.540304
3278   1 22.842496  8.565936 51.395616
3279   1 22.842496  8.565936 54.250928
3280   1 22.842496 11.421248  0.000000
3281   1 22.842496 11.421248  2.855312
3282   1 22.842496 11.421248  5.710624
3283   1 22.842496 11.421248  8.565936
3284   1 22.842496 11.421248 11.421248
3285   1 22.842496 11.421248 14.276560
3286   1 22.842496 11.421248 17.131872
3287   1 22.842496 11.421248 19.987184
3288   1 22.842496 11.421248 22.842496
3289   1 22.842496 11.421248 25.697808
3290   1 22.842496 11.421248 28.553120
3291   1 22.842496 11.421248 31.408432
3292   1 22.842496 11.421248 34.263744
3293   1 22.842496 11.421248 37.119056
3294   1 22.842496 11.421248 39.974368
3295   1 22.842496 11.421248 42.829680
3296   1 22.842496 11.421248 45.684992
3297   1 22.842496 11.421248 48.540304
3298   1 22.842496 11.421248 51.395616
3299   1 22.842496 11.421248 54.250928
3300   1 22.842496 14.276560  0.000000
3301   1 22.842496 14.276560  2.855312
3302   1 22.842496 14.276560  5.710624
3303   1 22.842496 14.276560  8.565936
3304   1 22.842496 14.276560 11.421248
3305   1 22.842496 14.276560 14.276560
3306   1 22.842496 14.276560 17.131872
3307   1 22.842496 14.276560 19.987184
3308   1 22.842496 14.276560 22.842496
3309   1 22.842496 14.276560 25.697808
3310   1 22.842496 14.276560 28.553120
3311   1 22.842496 14.276560 31.408432
3312   1 22.842496 14.276560 34.263744
3313   1 22.842496 14.276560 37.119056
3314   1 22.842496 14.276560 39.974368
3315   1 22.842496 14.276560 42.829680
3316   1 22.842496 14.276560 45.684992
3317   1 22.842496 14.276560 48.540304
3318   1 22.842496 14.276560 51.395616
3319   1 22.842496 14.276560 54.250928
3320   1 22.842496 17.131872  0.000000
3321   1 22.842496 17.131872  2.855312
3322   1 22.842496 17.131872  5.710624
3323   1 22.842496 17.131872  8.565936
3324   1 22.842496 17.131872 11.421248
3325   1 22.842496 17.131872 14.276560
3326   1 22.842496 17.131872 17.131872
3327   1 22.842496 17.131872 19.987184
3328   1 22.842496 17.131872 22.842496
3329   1 22.842496 17.131872 25.697808
3330   1 22.842496 17.131872 28.553120
3331   1 22.842496 17.131872 31.408432
3332   1 22.842496 17.131872 34.263744
3333   1 22.842496 17.131872 37.119056
3334   1 22.842496 17.131872 39.974368
3335   1 22.842496 17.131872 42.829680
3336   1 22.842496 17.131872 45.684992
3337   1 22.842496 17.131872 48.540304
3338   1 22.842496 17.131872 51.395616
3339   1 22.842496 17.131872 54.250928
3340   1 22.842496 19.987184  0.000000
3341   1 22.842496 19.987184  2.855312
3342   1 22.842496 19.987184  5.710624
3343   1 22.842496 19.987184  8.565936
3344   1 22.842496 19.987184 11.421248
3345   1 22.842496 19.987184 14.276560
3346   1 22.842496 19.987184 17.131872
3347   1 22.842496 19.987184 19.987184
3348   1 22.842496 19.987184 22.842496
3349   1 22.842496 19.987184 25.697808
3350   1 22.842496 19.987184 28.553120
3351   1 22.842496 19.987184 31.408432
3352   1 22.842496 19.987184 34.263744
3353   1 22.842496 19.987184 37.119056
3354   1 22.842496 19.987184 39.974368
3355   1 22.842496 19.987184 42.829680
3356   1 22.842496 19.987184 45.684992
3357   1 22.842496 19.987184 48.540304
3358   1 22.842496 19.987184 51.395616
3359   1 22.842496 19.987184 54.250928
3360   1 22.842496 22.842496  0.000000
3361   1 22.842496 22.842496  2.855312
3362   1 22.842496 22.842496  5.710624
3363   1 22.842496 22.842496  8.565936
3364   1 22.842496 22.842496 11.421248
3365   1 22.842496 22.842496 14.276560
3366   1 22.842496 22.842496 17.131872
3367   1 22.842496 22.842496 19.987184
3368   1 22.842496 22.842496 22.842496
3369   1 22.842496 22.842496 25.697808
3370   1 22.842496 22.842496 28.553120
3371   1 22.842496 22.842496 31.408432
3372   1 22.842496 22.842496 34.263744
3373   1 22.842496 22.842496 37.119056
3374   1 22.842496 22.842496 39.974368
3375   1 22.842496 22.842496 42.829680
3376   1 22.842496 22.842496 45.684992
3377   1 22.842496 22.842496 48.540304
3378   1 22.842496 22.842496 51.395616
3379   1 22.842496 22.842496 54.250928
3380   1 22.842496 25.697808  0.000000
3381   1 22.842496 25.697808  2.855312
3382   1 22.842496 25.697808  5.710624
3383   1 22.842496 25.697808  8.565936
3384   1 22.842496 25.697808 11.421248
3385   1 22.842496 25.697808 14.276560
3386   1 22.842496 25.697808 17.131872
3387   1 22.842496 25.697808 19.987184
3388   1 22.842496 25.697808 22.842496
3389   1 22.842496 25.697808 25.697808
3390   1 22.842496 25.697808 28.553120
3391   1 22.842496 25.697808 31.408432
3392   1 22.842496 25.697808 34.263744
3393   1 22.842496 25.697808 37.119056
3394   1 22.842496 25.697808 39.974368
3395   1 22.842496 25.697808 42.829680
3396   1 22.842496 25.697808 45.684992
3397   1 22.842496 25.697808 48.540304
3398   1 22.842496 25.697808 51.395616
3399   1 22.842496 25.697808 54.250928
3400   1 22.842496 28.553120  0.000000
3401   1 22.842496 28.553120  2.855312
3402   1 22.842496 28.553120  5.710624
3403   1 22.842496 28.553120  8.565936
3404   1 22.842496 28.553120 11.421248
3405   1 22.842496 28.553120 14.276560
3406   1 22.842496 28.553120 17.131872
3407   1 22.842496 28.553120 19.987184
3408   1 22.842496 28.553120 22.842496
3409   1 22.842496 28.553120 25.697808
3410   1 22.842496 28.553120 28.553120
3411   1 22.842496 28.553120 31.408432
3412   1 22.842496 28.553120 34.263744
3413   1 22.842496 28.553120 37.119056
3414   1 22.842496 28.553120 39.974368
3415   1 22.842496 28.553120 42.829680
3416   1 22.842496 28.553120 45.684992
3417   1 22.842496 28.553120 48.540304
3418   1 22.842496 28.553120 51.395616
3419   1 22.842496 28.553120 54.250928
3420   1 22.842496 31.408432  0.000000
3421   1 22.842496 31.408432  2.855312
3422   1 22.842496 31.408432  5.710624
3423   1 22.842496 31.408432  8.565936
3424   1 22.842496 31.408432 11.421248
3425   1 22.842496 31.408432 14.276560
3426   1 22.842496 31.408432 17.131872
3427   1 22.842496 31.408432 19.987184
3428   1 22.842496 31.408432 22.842496
3429   1 22.842496 31.408432 25.697808
3430   1 22.842496 31.408432 28.553120
3431   1 22.842496 31.408432 31.408432
3432   1 22.842496 31.408432 34.263744
3433   1 22.842496 31.408432 37.119056
3434   1 22.842496 31.408432 39.974368
3435   1 22.842496 31.408432 42.829680
3436   1 22.842496 31.408432 45.684992
3437   1 22.842496 31.408432 48.540304
3438   1 22.842496 31.408432 51.395616
3439   1 22.842496 31.408432 54.250928
3440   1 22.842496 34.263744  0.000000
3441   1 22.842496 34.263744  2.855312
3442   1 22.842496 34.263744  5.710624
3443   1 22.842496 34.263744  8.565936
3444   1 22.842496 34.263744 11.421248
3445   1 22.842496 34.263744 14.276560
3446   1 22.842496 34.263744 17.131872
3447   1 22.842496 34.263744 19.987184
3448   1 22.842496 34.263744 22.842496
3449   1 22.842496 34.263744 25.697808
3450   1 22.842496 34.263744 28.553120
3451   1 22.842496 34.263744 31.408432
3452   1 22.842496 34.263744 34.263744
3453   1 22.842496 34.263744 37.119056
3454   1 22.842496 34.263744 39.974368
3455   1 22.842496 34.263744 42.829680
3456   1 22.842496 34.263744 45.684992
3457   1 22.842496 34.263744 48.540304
3458   1 22.842496 34.263744 51.395616
3459   1 22.842496 34.263744 54.250928
3460   1 22.842496 37.119056  0.000000
3461   1 22.842496 37.119056  2.855312
3462   1 22.842496 37.119056  5.710624
3463   1 22.842496 37.119056  8.565936
3464   1 22.842496 37.119056 11.421248
3465   1 22.842496 37.119056 14.276560
3466   1 22.842496 37.119056 17.131872
3467   1 22.842496 37.119056 19.987184
3468   1 22.842496 37.119056 22.842496
3469   1 22.842496 37.119056 25.697808
3470   1 22.842496 37.119056 28.553120
3471   1 22.842496 37.119056 31.408432
3472   1 22.842496 37.119056 34.263744
3473   1 22.842496 37.119056 37.119056
3474   1 22.842496 37.119056 39.974368
3475   1 22.842496 37.119056 42.829680
3476   1 22.842496 37.119056 45.684992
3477   1 22.842496 37.119056 48.540304
3478   1 22.842496 37.119056 51.395616
3479   1 22.842496 37.119056 54.250928
3480   1 22.842496 39.974368  0.000000
3481   1 22.842496 39.974368  2.855312
3482   1 22.842496 39.974368  5.710624
3483   1 22.842496 39.974368  8.565936
3484   1 22.842496 39.974368 11.421248
3485   1 22.842496 39.974368 14.276560
3486   1 22.842496 39.974368 17.131872
3487   1 22.842496 39.974368 19.987184
3488   1 22.842496 39.974368 22.842496
3489   1 22.842496 39.974368 25.697808
3490   1 22.842496 39.974368 28.553120
3491   1 22.842496 39.974368 31.408432
3492   1 22.842496 39.974368 34.263744
3493   1 22.842496 39.974368 37.119056
3494   1 22.842496 39.974368 39.974368
3495   1 22.842496 39.974368 42.829680
3496   1 22.842496 39.974368 45.684992
3497   1 22.842496 39.974368 48.540304
3498   1 22.842496 39.974368 51.395616
3499   1 22.842496 39.974368 54.250928
3500   1 22.842496 42.829680  0.000000
3501   1 22.842496 42.829680  2.855312
3502   1 22.842496 42.829680  5.710624
3503   1 22.842496 42.829680  8.565936
3504   1 22.842496 42.829680 11.421248
3505   1 22.842496 42.829680 14.276560
3506   1 22.842496 42.829680 17.131872
3507   1 22.842496 42.829680 19.987184
3508   1 22.842496 42.829680 22.842496
3509   1 22.842496 42.829680 25.697808
3510   1 22.842496 42.829680 28.553120
3511   1 22.842496 42.829680 31.408432
3512   1 22.842496 42.829680 34.263744
3513   1 22.842496 42.829680 37.119056
3514   1 22.842496 42.829680 39.974368
3515   1 22.842496 42.829680 42.829680
3516   1 22.842496 42.829680 45.684992
3517   1 22.842496 42.829680 48.540304
3518   1 22.842496 42.829680 51.395616
3519   1 22.842496 42.829680 54.250928
3520   1 22.842496 45.684992  0.000000
3521   1 22.842496 45.684992  2.855312
3522   1 22.842496 45.684992  5.710624
3523   1 22.842496 45.684992  8.565936
3524   1 22.842496 45.684992 11.421248
3525   1 22.842496 45.684992 14.276560
3526   1 22.842496 45.684992 17.131872
3527   1 22.842496 45.684992 19.987184
3528   1 22.842496 45.684992 22.842496
3529   1 22.842496 45.684992 25.697808
3530   1 22.842496 45.684992 28.553120
3531   1 22.842496 45.684992 31.408432
3532   1 22.842496 45.684992 34.263744
3533   1 22.842496 45.684992 37.119056
3534   1 22.842496 45.684992 39.974368
3535   1 22.842496 45.684992 42.829680
3536   1 22.842496 45.684992 45.684992
3537   1 22.842496 45.684992 48.540304
3538   1 22.842496 45.684992 51.395616
3539   1 22.842496 45.684992 54.250928
3540   1 22.842496 48.540304  0.000000
3541   1 22.842496 48.540304  2.855312
3542   1 22.842496 48.540304  5.710624
3543   1 22.842496 48.540304  8.565936
3544   1 22.842496 48.540304 11.421248
3545   1 22.842496 48.540304 14.276560
3546   1 22.842496 48.540304 17.131872
3547   1 22.842496 48.540304 19.987184
3548   1 22.842496 48.540304 22.842496
3549   1 22.842496 48.540304 25.697808
3550   1 22.842496 48.540304 28.553120
3551   1 22.842496 48.540304 31.408432
3552   1 22.842496 48.540304 34.263744
3553   1 22.842496 48.540304 37.119056
3554   1 22.842496 48.540304 39.974368
3555   1 22.842496 48.540304 42.829680
3556   1 22.842496 48.540304 45.684992
3557   1 22.842496 48.540304 48.540304
3558   1 22.842496 48.540304 51.395616
3559   1 22.842496 48.540304 54.250928
3560   1 22.842496 51.395616  0.000000
3561   1 22.842496 51.395616  2.855312
3562   1 22.842496 51.395616  5.710624
3563   1 22.842496 51.395616  8.565936
3564   1 22.842496 51.395616 11.421248
3565   1 22.842496 51.395616 14.276560
3566   1 22.842496 51.395616 17.131872
3567   1 22.842496 51.395616 19.987184
3568   1 22.842496 51.395616 22.842496
3569   1 22.842496 51.395616 25.697808
3570   1 22.842496 51.395616 28.553120
3571   1 22.842496 51.395616 31.408432
3572   1 22.842496 51.395616 34.263744
3573   1 22.842496 51.395616 37.119056
3574   1 22.842496 51.395616 39.974368
3575   1 22.842496 51.395616 42.829680
3576   1 22.842496 51.395616 45.684992
3577   1 22.842496 51.395616 48.540304
3578   1 22.842496 51.395616 51.395616
3579   1 22.842496 51.395616 54.250928
3580   1 22.842496 54.250928  0.000000
3581   1 22.842496 54.250928  2.855312
3582   1 22.842496 54.250928  5.710624
3583   1 22.842496 54.250928  8.565936
3584   1 22.842496 54.250928 11.421248
3585   1 22.842496 54.250928 14.276560
3586   1 22.842496 54.250928 17.131872
3587   1 22.842496 54.250928 19.987184
3588   1 22.842496 54.250928 22.842496
3589   1 22.842496 54.250928 25.697808
3590   1 22.842496 54.250928 28.553120
3591   1 22.842496 54.250928 31.408432
3592   1 22.842496 54.250928 34.263744
3593   1 22.842496 54.250928 37.119056
3594   1 22.842496 54.250928 39.974368
3595   1 22.842496 54.250928 42.829680
3596   1 22.842496 54.250928 45.684992
3597   1 22.842496 54.250928 48.540304
3598   1 22.842496 54.250928 51.395616
3599   1 22.842496 54.250928 54.250928
3600   1 25.697808  0.000000  0.000000
3601   1 25.697808  0.000000  2.855312
3602   1 25.697808  0.000000  5.710624
3603   1 25.697808  0.000000  8.565936
3604   1 25.697808  0.000000 11.421248
3605   1 25.697808  0.000000 14.276560
3606   1 25.697808  0.000000 17.131872
3607   1 25.697808  0.000000 19.987184
3608   1 25.697808  0.000000 22.842496
3609   1 25.697808  0.000000 25.697808
3610   1 25.697808  0.000000 28.553120
3611   1 25.697808  0.000000 31.408432
3612   1 25.697808  0.000000 34.263744
3613   1 25.697808  0.000000 37.119056
3614   1 25.697808  0.000000 39.974368
3615   1 25.697808  0.000000 42.829680
3616   1 25.697808  0.000000 45.684992
3617   1 25.697808  0.000000 48.540304
3618   1 25.697808  0.000000 51.395616
3619   1 25.697808  0.000000 54.250928
3620   1 25.697808  2.855312  0.000000
3621   1 25.697808  2.855312  2.855312
3622   1 25.697808  2.855312  5.710624
3623   1 25.697808  2.855312  8.565936
3624   1 25.697808  2.855312 11.421248
3625   1 25.697808  2.855312 14.276560
3626   1 25.697808  2.855312 17.131872
3627   1 25.697808  2.855312 19.987184
3628   1 25.697808  2.855312 22.842496
3629   1 25.697808  2.855312 25.697808
3630   1 25.697808  2.855312 28.553120
3631   1 25.697808  2.855312 31.408432
3632   1 25.697808  2.855312 34.263744
3633   1 25.697808  2.855312 37.119056
3634   1 25.697808  2.855312 39.974368
3635   1 25.697808  2.855312 42.829680
3636   1 25.697808  2.855312 45.684992
3637   1 25.697808  2.855312 48.540304
3638   1 25.697808  2.855312 51.395616
3639   1 25.697808  2.855312 54.250928
3640   1 25.697808  5.710624  0.000000
3641   1 25.697808  5.710624  2.855312
3642   1 25.697808  5.710624  5.710624
3643   1 25.697808  5.710624  8.565936
3644   1 25.697808  5.710624 11.421248
3645   1 25.697808  5.710624 14.276560
3646   1 25.697808  5.710624 17.131872
3647   1 25.697808  5.710624 19.987184
3648   1 25.697808  5.710624 22.842496
3649   1 25.697808  5.710624 25.697808
3650   1 25.697808  5.710624 28.553120
3651   1 25.697808  5.710624 31.408432
3652   1 25.697808  5.710624 34.263744
3653   1 25.697808  5.710624 37.119056
3654   1 25.697808  5.710624 39.974368
3655   1 25.697808  5.710624 42.829680
3656   1 25.697808  5.710624 45.684992
3657   1 25.697808  5.710624 48.540304
3658   1 25.697808  5.710624 51.395616
3659   1 25.697808  5.710624 54.250928
3660   1 25.697808  8.565936  0.000000
3661   1 25.697808  8.565936  2.855312
3662   1 25.697808  8.565936  5.710624
3663   1 25.697808  8.565936  8.565936
3664   1 25.697808  8.565936 11.421248
3665   1 25.697808  8.565936 14.276560
3666   1 25.697808  8.565936 17.131872
3667   1 25.697808  8.565936 19.987184
3668   1 25.697808  8.565936 22.842496
3669   1 25.697808  8.565936 25.697808
3670   1 25.697808  8.565936 28.553120
3671   1 25.697808  8.565936 31.408432
3672   1 25.697808  8.565936 34.263744
3673   1 25.697808  8.565936 37.119056
3674   1 25.697808  8.565936 39.974368
3675   1 25.697808  8.565936 42.829680
3676   1 25.697808  8.565936 45.684992
3677   1 25.697808  8.565936 48.540304
3678   1 25.697808  8.565936 51.395616
3679   1 25.697808  8.565936 54.250928
3680   1 25.697808 11.421248  0.000000
3681   1 25.697808 11.421248  2.855312
3682   1 25.697808 11.421248  5.710624
3683   1 25.697808 11.421248  8.565936
3684   1 25.697808 11.421248 11.421248
3685   1 25.697808 11.421248 14.276560
3686   1 25.697808 11.421248 17.131872
3687   1 25.697808 11.421248 19.987184
3688   1 25.697808 11.421248 22.842496
3689   1 25.697808 11.421248 25.697808
3690   1 25.697808 11.421248 28.553120
3691   1 25.697808 11.421248 31.408432
3692   1 25.697808 11.421248 34.263744
3693   1 25.697808 11.421248 37.119056
3694   1 25.697808 11.421248 39.974368
3695   1 25.697808 11.421248 42.829680
3696   1 25.697808 11.421248 45.684992
3697   1 25.697808 11.421248 48.540304
3698   1 25.697808 11.421248 51.395616
3699   1 25.697808 11.421248 54.250928
3700   1 25.697808 14.276560  0.000000
3701   1 25.697808 14.276560  2.855312
3702   1 25.697808 14.276560  5.710624
3703   1 25.697808 14.276560  8.565936
3704   1 25.697808 14.276560 11.421248
3705   1 25.697808 14.276560 14.276560
3706   1 25.697808 14.276560 17.131872
3707   1 25.697808 14.276560 19.987184
3708   1 25.697808 14.276560 22.842496
3709   1 25.697808 14.276560 25.697808
3710   1 25.697808 14.276560 28.553120
3711   1 25.697808 14.276560 31.408432
3712   1 25.697808 14.276560 34.263744
3713   1 25.697808 14.276560 37.119056
3714   1 25.697808 14.276560 39.974368
3715   1 25.697808 14.276560 42.829680
3716   1 25.697808 14.276560 45.684992
3717   1 25.697808 14.276560 48.540304
3718   1 25.697808 14.276560 51.395616
3719   1 25.697808 14.276560 54.250928
3720   1 25.697808 17.131872  0.000000
3721   1 25.697808 17.131872  2.855312
3722   1 25.697808 17.131872  5.710624
3723   1 25.697808 17.131872  8.565936
3724   1 25.697808 17.131872 11.421248
3725   1 25.697808 17.131872 14.276560
3726   1 25.697808 17.131872 17.131872
3727   1 25.697808 17.131872 19.987184
3728   1 25.697808 17.131872 22.842496
3729   1 25.697808 17.131872 25.697808
3730   1 25.697808 17.131872 28.553120
3731   1 25.697808 17.131872 31.408432
3732   1 25.697808 17.131872 34.263744
3733   1 25.697808 17.131872 37.119056
3734   1 25.697808 17.131872 39.974368
3735   1 25.697808 17.131872 42.829680
3736   1 25.697808 17.131872 45.684992
3737   1 25.697808 17.131872 48.540304
3738   1 25.697808 17.131872 51.395616
3739   1 25.697808 17.131872 54.250928
3740   1 25.697808 19.987184  0.000000
3741   1 25.697808 19.987184  2.855312
3742   1 25.697808 19.987184  5.710624
3743   1 25.697808 19.987184  8.565936
3744   1 25.697808 19.987184 11.421248
3745   1 25.697808 19.987184 14.276560
3746   1 25.697808 19.987184 17.131872
3747   1 25.697808 19.987184 19.987184
3748   1 25.697808 19.987184 22.842496
3749   1 25.697808 19.987184 25.697808
3750   1 25.697808 19.987184 28.553120
3751   1 25.697808 19.987184 31.408432
3752   1 25.697808 19.987184 34.263744
3753   1 25.697808 19.987184 37.119056
3754   1 25.697808 19.987184 39.974368
3755   1 25.697808 19.987184 42.829680
3756   1 25.697808 19.987184 45.684992
3757   1 25.697808 19.987184 48.540304
3758   1 25.697808 19.987184 51.395616
3759   1 25.697808 19.987184 54.250928
3760   1 25.697808 22.842496  0.000000
3761   1 25.697808 22.842496  2.855312
3762   1 25.697808 22.842496  5.710624
3763   1 25.697808 22.842496  8.565936
3764   1 25.697808 22.842496 11.421248
3765   1 25.697808 22.842496 14.276560
3766   1 25.697808 22.842496 17.131872
3767   1 25.697808 22.842496 19.987184
3768   1 25.697808 22.842496 22.842496
3769   1 25.697808 22.842496 25.697808
3770   1 25.697808 22.842496 28.553120
3771   1 25.697808 22.842496 31.408432
3772   1 25.697808 22.842496 34.263744
3773   1 25.697808 22.842496 37.119056
3774   1 25.697808 22.842496 39.974368
3775   1 25.697808 22.842496 42.829680
3776   1 25.697808 22.842496 45.684992
3777   1 25.697808 22.842496 48.540304
3778   1 25.697808 22.842496 51.395616
3779   1 25.697808 22.842496 54.250928
3780   1 25.697808 25.697808  0.000000
3781   1 25.697808 25.697808  2.855312
3782   1 25.697808 25.697808  5.710624
3783   1 25.697808 25.697808  8.565936
3784   1 25.697808 25.697808 11.421248
3785   1 25.697808 25.697808 14.276560
3786   1 25.697808 25.697808 17.131872
3787   1 25.697808 25.697808 19.987184
3788   1 25.697808 25.697808 22.842496
3789   1 25.697808 25.697808 25.697808
3790   1 25.697808 25.697808 28.553120
3791   1 25.697808 25.697808 31.408432
3792   1 25.697808 25.697808 34.263744
3793   1 25.697808 25.697808 37.119056
3794   1 25.697808 25.697808 39.974368
3795   1 25.697808 25.697808 42.829680
3796   1 25.697808 25.697808 45.684992
3797   1 25.697808 25.697808 48.540304
3798   1 25.697808 25.697808 51.395616
3799   1 25.697808 25.697808 54.250928
3800   1 25.697808 28.553120  0.000000
3801   1 25.697808 28.553120  2.855312
3802   1 25.697808 28.553120  5.710624
3803   1 25.697808 28.553120  8.565936
3804   1 25.697808 28.553120 11.421248
3805   1 25.697808 28.553120 14.276560
3806   1 25.697808 28.553120 17.131872
3807   1 25.697808 28.553120 19.987184
3808   1 25.697808 28.553120 22.842496
3809   1 25.697808 28.553120 25.697808
3810   1 25.697808 28.553120 28.553120
3811   1 25.697808 28.553120 31.408432
3812   1 25.697808 28.553120 34.263744
3813   1 25.697808 28.553120 37.119056
3814   1 25.697808 28.553120 39.974368
3815   1 25.697808 28.553120 42.829680
3816   1 25.697808 28.553120 45.684992
3817   1 25.697808 28.553120 48.540304
3818   1 25.697808 28.553120 51.395616
3819   1 25.697808 28.553120 54.250928
3820   1 25.697808 31.408432  0.000000
3821   1 25.697808 31.408432  2.855312
3822   1 25.697808 31.408432  5.710624
3823   1 25.697808 31.408432  8.565936
3824   1 25.697808 31.408432 11.421248
3825   1 25.697808 31.408432 14.276560
3826   1 25.697808 31.408432 17.131872
3827   1 25.697808 31.408432 19.987184
3828   1 25.697808 31.408432 22.842496
3829   1 25.697808 31.408432 25.697808
3830   1 25.697808 31.408432 28.553120
3831   1 25.697808 31.408432 31.408432
3832   1 25.697808 31.408432 34.263744
3833   1 25.697808 31.408432 37.119056
3834   1 25.697808 31.408432 39.974368
3835   1 25.697808 31.408432 42.829680
3836   1 25.697808 31.408432 45.684992
3837   1 25.697808 31.408432 48.540304
3838   1 25.697808 31.408432 51.395616
3839   1 25.697808 31.408432 54.250928
3840   1 25.697808 34.263744  0.000000
3841   1 25.697808 34.263744  2.855312
3842   1 25.697808 34.263744  5.710624
3843   1 25.697808 34.263744  8.565936
3844   1 25.697808 34.263744 11.421248
3845   1 25.697808 34.263744 14.276560
3846   1 25.697808 34.263744 17.131872
3847   1 25.697808 34.263744 19.987184
3848   1 25.697808 34.263744 22.842496
3849   1 25.697808 34.263744 25.697808
3850   1 25.697808 34.263744 28.553120
3851   1 25.697808 34.263744 31.408432
3852   1 25.697808 34.263744 34.263744
3853   1 25.697808 34.263744 37.119056
3854   1 25.697808 34.263744 39.974368
3855   1 25.697808 34.263744 42.829680
3856   1 25.697808 34.263744 45.684992
3857   1 25.697808 34.263744 48.540304
3858   1 25.697808 34.263744 51.395616
3859   1 25.697808 34.263744 54.250928
3860   1 25.697808 37.119056  0.000000
3861   1 25.697808 37.119056  2.855312
3862   1 25.697808 37.119056  5.710624
3863   1 25.697808 37.119056  8.565936
3864   1 25.697808 37.119056 11.421248
3865   1 25.697808 37.119056 14.276560
3866   1 25.697808 37.119056 17.131872
3867   1 25.697808 37.119056 19.987184
3868   1 25.697808 37.119056 22.842496
3869   1 25.697808 37.119056 25.697808
3870   1 25.697808 37.119056 28.553120
3871   1 25.697808 37.119056 31.408432
3872   1 25.697808 37.119056 34.263744
3873   1 25.697808 37.119056 37.119056
3874   1 25.697808 37.119056 39.974368
3875   1 25.697808 37.119056 42.829680
3876   1 25.697808 37.119056 45.684992
3877   1 25.697808 37.119056 48.540304
3878   1 25.697808 37.119056 51.395616
3879   1 25.697808 37.119056 54.250928
3880   1 25.697808 39.974368  0.000000
3881   1 25.697808 39.974368  2.855312
3882   1 25.697808 39.974368  5.710624
3883   1 25.697808 39.974368  8.565936
3884   1 25.697808 39.974368 11.421248
3885   1 25.697808 39.974368 14.276560
3886   1 25.697808 39.974368 17.131872
3887   1 25.697808 39.974368 19.987184
3888   1 25.697808 39.974368 22.842496
3889   1 25.697808 39.974368 25.697808
3890   1 25.697808 39.974368 28.553120
3891   1 25.697808 39.974368 31.408432
3892   1 25.697808 39.974368 34.263744
3893   1 25.697808 39.974368 37.119056
3894   1 25.697808 39.974368 39.974368
3895   1 25.697808 39.974368 42.829680
3896   1 25.697808 39.974368 45.684992
3897   1 25.697808 39.974368 48.540304
3898   1 25.697808 39.974368 51.395616
3899   1 25.697808 39.974368 54.250928
3900   1 25.697808 42.829680  0.000000
3901   1 25.697808 42.829680  2.855312
3902   1 25.697808 42.829680  5.710624
3903   1 25.697808 42.829680  8.565936
3904   1 25.697808 42.829680 11.421248
3905   1 25.697808 42.829680 14.276560
3906   1 25.697808 42.829680 17.131872
3907   1 25.697808 42.829680 19.987184
3908   1 25.697808 42.829680 22.842496
3909   1 25.697808 42.829680 25.697808
3910   1 25.697808 42.829680 28.553120
3911   1 25.697808 42.829680 31.408432
3912   1 25.697808 42.829680 34.263744
3913   1 25.697808 42.829680 37.119056
3914   1 25.697808 42.829680 39.974368
3915   1 25.697808 42.829680 42.829680
3916   1 25.697808 42.829680 45.684992
3917   1 25.697808 42.829680 48.540304
3918   1 25.697808 42.829680 51.395616
3919   1 25.697808 42.829680 54.250928
3920   1 25.697808 45.684992  0.000000
3921   1 25.697808 45.684992  2.855312
3922   1 25.697808 45.684992  5.710624
3923   1 25.697808 45.684992  8.565936
3924   1 25.697808 45.684992 11.421248
3925   1 25.697808 45.684992 14.276560
3926   1 25.697808 45.684992 17.131872
3927   1 25.697808 45.684992 19.987184
3928   1 25.697808 45.684992 22.842496
3929   1 25.697808 45.684992 25.697808
3930   1 25.697808 45.684992 28.553120
3931   1 25.697808 45.684992 31.408432
3932   1 25.697808 45.684992 34.263744
3933   1 25.697808 45.684992 37.119056
3934   1 25.697808 45.684992 39.974368
3935   1 25.697808 45.684992 42.829680
3936   1 25.697808 45.684992 45.684992
3937   1 25.697808 45.684992 48.540304
3938   1 25.697808 45.684992 51.395616
3939   1 25.697808 45.684992 54.250928
3940   1 25.697808 48.540304  0.000000
3941   1 25.697808 48.540304  2.855312
3942   1 25.697808 48.540304  5.710624
3943   1 25.697808 48.540304  8.565936
3944   1 25.697808 48.540304 11.421248
3945   1 25.697808 48.540304 14.276560
3946   1 25.697808 48.540304 17.131872
3947   1 25.697808 48.540304 19.987184
3948   1 25.697808 48.540304 22.842496
3949   1 25.697808 48.540304 25.697808
3950   1 25.697808 48.540304 28.553120
3951   1 25.697808 48.540304 31.408432
3952   1 25.697808 48.540304 34.263744
3953   1 25.697808 48.540304 37.119056
3954   1 25.697808 48.540304 39.974368
3955   1 25.697808 48.540304 42.829680
3956   1 25.697808 48.540304 45.684992
3957   1 25.697808 48.540304 48.540304
3958   1 25.697808 48.540304 51.395616
3959   1 25.697808 48.540304 54.250928
3960   1 25.697808 51.395616  0.000000
3961   1 25.697808 51.395616  2.855312
3962   1 25.697808 51.395616  5.710624
3963   1 25.697808 51.395616  8.565936
3964   1 25.697808 51.395616 11.421248
3965   1 25.697808 51.395616 14.276560
3966   1 25.697808 51.395616 17.131872
3967   1 25.697808 51.395616 19.987184
3968   1 25.697808 51.395616 22.842496
3969   1 25.697808 51.395616 25.697808
3970   1 25.697808 51.395616 28.553120
3971   1 25.697808 51.395616 31.408432
3972   1 25.697808 51.395616 34.263744
3973   1 25.697808 51.395616 37.119056
3974   1 25.697808 51.395616 39.974368
3975   1 25.697808 51.395616 42.829680
3976   1 25.697808 51.395616 45.684992
3977   1 25.697808 51.395616 48.540304
3978   1 25.697808 51.395616 51.395616
3979   1 25.697808 51.395616 54.250928
3980   1 25.697808 54.250928  0.000000
3981   1 25.697808 54.250928  2.855312
3982   1 25.697808 54.250928  5.710624
3983   1 25.697808 54.250928  8.565936
3984   1 25.697808 54.250928 11.421248
3985   1 25.697808 54.250928 14.276560
3986   1 25.697808 54.250928 17.131872
3987   1 25.697808 54.250928 19.987184
3988   1 25.697808 54.250928 22.842496
3989   1 25.697808 54.250928 25.697808
3990   1 25.697808 54.250928 28.553120
3991   1 25.697808 54.250928 31.408432
3992   1 25.697808 54.250928 34.263744
3993   1 25.697808 54.250928 37.119056
3994   1 25.697808 54.250928 39.974368
3995   1 25.697808 54.250928 42.829680
3996   1 25.697808 54.250928 45.684992
3997   1 25.697808 54.250928 48.540304
3998   1 25.697808 54.250928 51.395616
3999   1 25.697808 54.250928 54.250928
4000   1 28.553120  0.000000  0.000000
4001   1 28.553120  0.000000  2.855312
4002   1 28.553120  0.000000  5.710624
4003   1 28.553120  0.000000  8.565936
4004   1 28.553120  0.000000 11.421248
4005   1 28.553120  0.000000 14.276560
4006   1 28.553120  0.000000 17.131872
4007   1 28.553120  0.000000 19.987184
4008   1 28.553120  0.000000 22.842496
4009   1 28.553120  0.000000 25.697808
4010   1 28.553120  0.000000 28.553120
4011   1 28.553120  0.000000 31.408432
4012   1 28.553120  0.000000 34.263744
4013   1 28.553120  0.000000 37.119056
4014   1 28.553120  0.000000 39.974368
4015   1 28.553120  0.000000 42.829680
4016   1 28.553120  0.000000 45.684992
4017   1 28.553120  0.000000 48.540304
4018   1 28.553120  0.000000 51.395616
4019   1 28.553120  0.000000 54.250928
4020   1 28.553120  2.855312  0.000000
4021   1 28.553120  2.855312  2.855312
4022   1 28.553120  2.855312  5.710624
4023   1 28.553120  2.855312  8.565936
4024   1 28.553120  2.855312 11.421248
4025   1 28.553120  2.855312 14.276560
4026   1 28.553120  2.855312 17.131872
4027   1 28.553120  2.855312 19.987184
4028   1 28.553120  2.855312 22.842496
4029   1 28.553120  2.855312 25.697808
4030   1 28.553120  2.855312 28.553120
4031   1 28.553120  2.855312 31.408432
4032   1 28.553120  2.855312 34.263744
4033   1 28.553120  2.855312 37.119056
4034   1 28.553120  2.855312 39.974368
4035   1 28.553120  2.855312 42.829680
4036   1 28.553120  2.855312 45.684992
4037   1 28.553120  2.855312 48.540304
4038   1 28.553120  2.855312 51.395616
4039   1 28.553120  2.855312 54.250928
4040   1 28.553120  5.710624  0.000000
4041   1 28.553120  5.710624  2.855312
4042   1 28.553120  5.710624  5.710624
4043   1 28.553120  5.710624  8.565936
4044   1 28.553120  5.710624 11.421248
4045   1 28.553120  5.710624 14.276560
4046   1 28.553120  5.710624 17.131872
4047   1 28.553120  5.710624 19.987184
4048   1 28.553120  5.710624 22.842496
4049   1 28.553120  5.710624 25.697808
4050   1 28.553120  5.710624 28.553120
4051   1 28.553120  5.710624 31.408432
4052   1 28.553120  5.710624 34.263744
4053   1 28.553120  5.710624 37.119056
4054   1 28.553120  5.710624 39.974368
4055   1 28.553120  5.710624 42.829680
4056   1 28.553120  5.710624 45.684992
4057   1 28.553120  5.710624 48.540304
4058   1 28.553120  5.710624 51.395616
4059   1 28.553120  5.710624 54.250928
4060   1 28.553120  8.565936  0.000000
4061   1 28.553120  8.565936  2.855312
4062   1 28.553120  8.565936  5.710624
4063   1 28.553120  8.565936  8.565936
4064   1 28.553120  8.565936 11.421248
4065   1 28.553120  8.565936 14.276560
4066   1 28.553120  8.565936 17.131872
4067   1 28.553120  8.565936 19.987184
4068   1 28.553120  8.565936 22.842496
4069   1 28.553120  8.565936 25.697808
4070   1 28.553120  8.565936 28.553120
4071   1 28.553120  8.565936 31.408432
4072   1 28.553120  8.565936 34.263744
4073   1 28.553120  8.565936 37.119056
4074   1 28.553120  8.565936 39.974368
4075   1 28.553120  8.565936 42.829680
4076   1 28.553120  8.565936 45.684992
4077   1 28.553120  8.565936 48.540304
4078   1 28.553120  8.565936 51.395616
4079   1 28.553120  8.565936 54.250928
4080   1 28.553120 11.421248  0.000000
4081   1 28.553120 11.421248  2.855312
4082   1 28.553120 11.421248  5.710624
4083   1 28.553120 11.421248  8.565936
4084   1 28.553120 11.421248 11.421248
4085   1 28.553120 11.421248 14.276560
4086   1 28.553120 11.421248 17.131872
4087   1 28.553120 11.421248 19.987184
4088   1 28.553120 11.421248 22.842496
4089   1 28.553120 11.421248 25.697808
4090   1 28.553120 11.421248 28.553120
4091   1 28.553120 11.421248 31.408432
4092   1 28.553120 11.421248 34.263744
4093   1 28.553120 11.421248 37.119056
4094   1 28.553120 11.421248 39.974368
4095   1 28.553120 11.421248 42.829680
4096   1 28.553120 11.421248 45.684992
4097   1 28.553120 11.421248 48.540304
4098   1 28.553120 11.421248 51.395616
4099   1 28.553120 11.421248 54.250928
4100   1 28.553120 14.276560  0.000000
4101   1 28.553120 14.276560  2.855312
4102   1 28.553120 14.276560  5.710624
4103   1 28.553120 14.276560  8.565936
4104   1 28.553120 14.276560 11.421248
4105   1 28.553120 14.276560 14.276560
4106   1 28.553120 14.276560 17.131872
4107   1 28.553120 14.276560 19.987184
4108   1 28.553120 14.276560 22.842496
4109   1 28.553120 14.276560 25.697808
4110   1 28.553120 14.276560 28.553120
4111   1 28.553120 14.276560 31.408432
4112   1 28.553120 14.276560 34.263744
4113   1 28.553120 14.276560 37.119056
4114   1 28.553120 14.276560 39.974368
4115   1 28.553120 14.276560 42.829680
4116   1 28.553120 14.276560 45.684992
4117   1 28.553120 14.276560 48.540304
4118   1 28.553120 14.276560 51.395616
4119   1 28.553120 14.276560 54.250928
4120   1 28.553120 17.131872  0.000000
4121   1 28.553120 17.131872  2.855312
4122   1 28.553120 17.131872  5.710624
4123   1 28.553120 17.131872  8.565936
4124   1 28.553120 17.131872 11.421248
4125   1 28.553120 17.131872 14.276560
4126   1 28.553120 17.131872 17.131872
4127   1 28.553120 17.131872 19.987184
4128   1 28.553120 17.131872 22.842496
4129   1 28.553120 17.131872 25.697808
4130   1 28.553120 17.131872 28.553120
4131   1 28.553120 17.131872 31.408432
4132   1 28.553120 17.131872 34.263744
4133   1 28.553120 17.131872 37.119056
4134   1 28.553120 17.131872 39.974368
4135   1 28.553120 17.131872 42.829680
4136   1 28.553120 17.131872 45.684992
4137   1 28.553120 17.131872 48.540304
4138   1 28.553120 17.131872 51.395616
4139   1 28.553120 17.131872 54.250928
4140   1 28.553120 19.987184  0.000000
4141   1 28.553120 19.987184  2.855312
4142   1 28.553120 19.987184  5.710624
4143   1 28.553120 19.987184  8.565936
4144   1 28.553120 19.987184 11.421248
4145   1 28.553120 19.987184 14.276560
4146   1 28.553120 19.987184 17.131872
4147   1 28.553120 19.987184 19.987184
4148   1 28.553120 19.987184 22.842496
4149   1 28.553120 19.987184 25.697808
4150   1 28.553120 19.987184 28.553120
4151   1 28.553120 19.987184 31.408432
4152   1 28.553120 19.987184 34.263744
4153   1 28.553120 19.987184 37.119056
4154   1 28.553120 19.987184 39.974368
4155   1 28.553120 19.987184 42.829680
4156   1 28.553120 19.987184 45.684992
4157   1 28.553120 19.987184 48.540304
4158   1 28.553120 19.987184 51.395616
4159   1 28.553120 19.987184 54.250928
4160   1 28.553120 22.842496  0.000000
4161   1 28.553120 22.842496  2.855312
4162   1 28.553120 22.842496  5.710624
4163   1 28.553120 22.842496  8.565936
4164   1 28.553120 22.842496 11.421248
4165   1 28.553120 22.842496 14.276560
4166   1 28.553120 22.842496 17.131872
4167   1 28.553120 22.842496 19.987184
4168   1 28.553120 22.842496 22.842496
4169   1 28.553120 22.842496 25.697808
4170   1 28.553120 22.842496 28.553120
4171   1 28.553120 22.842496 31.408432
4172   1 28.553120 22.842496 34.263744
4173   1 28.553120 22.842496 37.119056
4174   1 28.553120 22.842496 39.974368
4175   1 28.553120 22.842496 42.829680
4176   1 28.553120 22.842496 45.684992
4177   1 28.553120 22.842496 48.540304
4178   1 28.553120 22.842496 51.395616
4179   1 28.553120 22.842496 54.250928
4180   1 28.553120 25.697808  0.000000
4181   1 28.553120 25.697808  2.855312
4182   1 28.553120 25.697808  5.710624
4183   1 28.553120 25.697808  8.565936
4184   1 28.553120 25.697808 11.421248
4185   1 28.553120 25.697808 14.276560
4186   1 28.553120 25.697808 17.131872
4187   1 28.553120 25.697808 19.987184
4188   1 28.553120 25.697808 22.842496
4189   1 28.553120 25.697808 25.697808
4190   1 28.553120 25.697808 28.553120
4191   1 28.553120 25.697808 31.408432
4192   1 28.553120 25.697808 34.263744
4193   1 28.553120 25.697808 37.119056
4194   1 28.553120 25.697808 39.974368
4195   1 28.553120 25.697808 42.829680
4196   1 28.553120 25.697808 45.684992
4197   1 28.553120 25.697808 48.540304
4198   1 28.553120 25.697808 51.395616
4199   1 28.553120 25.697808 54.250928
4200   1 28.553120 28.553120  0.000000
4201   1 28.553120 28.553120  2.855312
4202   1 28.553120 28.553120  5.710624
4203   1 28.553120 28.553120  8.565936
4204   1 28.553120 28.553120 11.421248
4205   1 28.553120 28.553120 14.276560
4206   1 28.553120 28.553120 17.131872
4207   1 28.553120 28.553120 19.987184
4208   1 28.553120 28.553120 22.842496
4209   1 28.553120 28.553120 25.697808
4210   1 28.553120 28.553120 28.553120
4211   1 28.553120 28.553120 31.408432
4212   1 28.553120 28.553120 34.263744
4213   1 28.553120 28.553120 37.119056
4214   1 28.553120 28.553120 39.974368
4215   1 28.553120 28.553120 42.829680
4216   1 28.553120 28.553120 45.684992
4217   1 28.553120 28.553120 48.540304
4218   1 28.553120 28.553120 51.395616
4219   1 28.553120 28.553120 54.250928
4220   1 28.553120 31.408432  0.000000
4221   1 28.553120 31.408432  2.855312
4222   1 28.553120 31.408432  5.710624
4223   1 28.553120 31.408432  8.565936
4224   1 28.553120 31.408432 11.421248
4225   1 28.553120 31.408432 14.276560
4226   1 28.553120 31.408432 17.131872
4227   1 28.553120 31.408432 19.987184
4228   1 28.553120 31.408432 22.842496
4229   1 28.553120 31.408432 25.697808
4230   1 28.553120 31.408432 28.553120
4231   1 28.553120 31.408432 31.408432
4232   1 28.553120 31.408432 34.263744
4233   1 28.553120 31.408432 37.119056
4234   1 28.553120 31.408432 39.974368
4235   1 28.553120 31.408432 42.829680
4236   1 28.553120 31.408432 45.684992
4237   1 28.553120 31.408432 48.540304
4238   1 28.553120 31.408432 51.395616
4239   1 28.553120 31.408432 54.250928
4240   1 28.553120 34.263744  0.000000
4241   1 28.553120 34.263744  2.855312
4242   1 28.553120 34.263744  5.710624
4243   1 28.553120 34.263744  8.565936
4244   1 28.553120 34.263744 11.421248
4245   1 28.553120 34.263744 14.276560
4246   1 28.553120 34.263744 17.131872
4247   1 28.553120 34.263744 19.987184
4248   1 28.553120 34.263744 22.842496
4249   1 28.553120 34.263744 25.697808
4250   1 28.553120 34.263744 28.553120
4251   1 28.553120 34.263744 31.408432
4252   1 28.553120 34.263744 34.263744
4253   1 28.553120 34.263744 37.119056
4254   1 28.553120 34.263744 39.974368
4255   1 28.553120 34.263744 42.829680
4256   1 28.553120 34.263744 45.684992
4257   1 28.553120 34.263744 48.540304
4258   1 28.553120 34.263744 51.395616
4259   1 28.553120 34.263744 54.250928
4260   1 28.553120 37.119056  0.000000
4261   1 28.553120 37.119056  2.855312
4262   1 28.553120 37.119056  5.710624
4263   1 28.553120 37.119056  8.565936
4264   1 28.553120 37.119056 11.421248
4265   1 28.553120 37.119056 14.276560
4266   1 28.553120 37.119056 17.131872
4267   1 28.553120 37.119056 19.987184
4268   1 28.553120 37.119056 22.842496
4269   1 28.553120 37.119056 25.697808
4270   1 28.553120 37.119056 28.553120
4271   1 28.553120 37.119056 31.408432
4272   1 28.553120 37.119056 34.263744
4273   1 28.553120 37.119056 37.119056
4274   1 28.553120 37.119056 39.974368
4275   1 28.553120 37.119056 42.829680
4276   1 28.553120 37.119056 45.684992
4277   1 28.553120 37.119056 48.540304
4278   1 28.553120 37.119056 51.395616
4279   1 28.553120 37.119056 54.250928
4280   1 28.553120 39.974368  0.000000
4281   1 28.553120 39.974368  2.855312
4282   1 28.553120 39.974368  5.710624
4283   1 28.553120 39.974368  8.565936
4284   1 28.553120 39.974368 11.421248
4285   1 28.553120 39.974368 14.276560
4286   1 28.553120 39.974368 17.131872
4287   1 28.553120 39.974368 19.987184
4288   1 28.553120 39.974368 22.842496
4289   1 28.553120 39.974368 25.697808
4290   1 28.553120 39.974368 28.553120
4291   1 28.553120 39.974368 31.408432
4292   1 28.553120 39.974368 34.263744
4293   1 28.553120 39.974368 37.119056
4294   1 28.553120 39.974368 39.974368
4295   1 28.553120 39.974368 42.829680
4296   1 28.553120 39.974368 45.684992
4297   1 28.553120 39.974368 48.540304
4298   1 28.553120 39.974368 51.395616
4299   1 28.553120 39.974368 54.250928
4300   1 28.553120 42.829680  0.000000
4301   1 28.553120 42.829680  2.855312
4302   1 28.553120 42.829680  5.710624
4303   1 28.553120 42.829680  8.565936
4304   1 28.553120 42.829680 11.421248
4305   1 28.553120 42.829680 14.276560
4306   1 28.553120 42.829680 17.131872
4307   1 28.553120 42.829680 19.987184
4308   1 28.553120 42.829680 22.842496
4309   1 28.553120 42.829680 25.697808
4310   1 28.553120 42.829680 28.553120
4311   1 28.553120 42.829680 31.408432
4312   1 28.553120 42.829680 34.263744
4313   1 28.553120 42.829680 37.119056
4314   1 28.553120 42.829680 39.974368
4315   1 28.553120 42.829680 42.829680
4316   1 28.553120 42.829680 45.684992
4317   1 28.553120 42.829680 48.540304
4318   1 28.553120 42.829680 51.395616
4319   1 28.553120 42.829680 54.250928
4320   1 28.553120 45.684992  0.000000
4321   1 28.553120 45.684992  2.855312
4322   1 28.553120 45.684992  5.710624
4323   1 28.553120 45.684992  8.565936
4324   1 28.553120 45.684992 11.421248
4325   1 28.553120 45.684992 14.276560
4326   1 28.553120 45.684992 17.131872
4327   1 28.553120 45.684992 19.987184
4328   1 28.553120 45.684992 22.842496
4329   1 28.553120 45.684992 25.697808
4330   1 28.553120 45.684992 28.553120
4331   1 28.553120 45.684992 31.408432
4332   1 28.553120 45.684992 34.263744
4333   1 28.553120 45.684992 37.119056
4334   1 28.553120 45.684992 39.974368
4335   1 28.553120 45.684992 42.829680
4336   1 28.553120 45.684992 45.684992
4337   1 28.553120 45.684992 48.540304
4338   1 28.553120 45.684992 51.395616
4339   1 28.553120 45.684992 54.250928
4340   1 28.553120 48.540304  0.000000
4341   1 28.553120 48.540304  2.855312
4342   1 28.553120 48.540304  5.710624
4343   1 28.553120 48.540304  8.565936
4344   1 28.553120 48.540304 11.421248
4345   1 28.553120 48.540304 14.276560
4346   1 28.553120 48.540304 17.131872
4347   1 28.553120 48.540304 19.987184
4348   1 28.553120 48.540304 22.842496
4349   1 28.553120 48.540304 25.697808
4350   1 28.553120 48.540304 28.553120
4351   1 28.553120 48.540304 31.408432
4352   1 28.553120 48.540304 34.263744
4353   1 28.553120 48.540304 37.119056
4354   1 28.553120 48.540304 39.974368
4355   1 28.553120 48.540304 42.829680
4356   1 28.553120 48.540304 45.684992
4357   1 28.553120 48.540304 48.540304
4358   1 28.553120 48.540304 51.395616
4359   1 28.553120 48.540304 54.250928
4360   1 28.553120 51.395616  0.000000
4361   1 28.553120 51.395616  2.855312
4362   1 28.553120 51.395616  5.710624
4363   1 28.553120 51.395616  8.565936
4364   1 28.553120 51.395616 11.421248
4365   1 28.553120 51.395616 14.276560
4366   1 28.553120 51.395616 17.131872
4367   1 28.553120 51.395616 19.987184
4368   1 28.553120 51.395616 22.842496
4369   1 28.553120 51.395616 25.697808
4370   1 28.553120 51.395616 28.553120
4371   1 28.553120 51.395616 31.408432
4372   1 28.553120 51.395616 34.263744
4373   1 28.553120 51.395616 37.119056
4374   1 28.553120 51.395616 39.974368
4375   1 28.553120 51.395616 42.829680
4376   1 28.553120 51.395616 45.684992
4377   1 28.553120 51.395616 48.540304
4378   1 28.553120 51.395616 51.395616
4379   1 28.553120 51.395616 54.250928
4380   1 28.553120 54.250928  0.000000
4381   1 28.553120 54.250928  2.855312
4382   1 28.553120 54.250928  5.710624
4383   1 28.553120 54.250928  8.565936
4384   1 28.553120 54.250928 11.421248
4385   1 28.553120 54.250928 14.276560
4386   1 28.553120 54.250928 17.131872
4387   1 28.553120 54.250928 19.987184
4388   1 28.553120 54.250928 22.842496
4389   1 28.553120 54.250928 25.697808
4390   1 28.553120 54.250928 28.553120
4391   1 28.553120 54.250928 31.408432
4392   1 28.553120 54.250928 34.263744
4393   1 28.553120 54.250928 37.119056
4394   1 28.553120 54.250928 39.974368
4395   1 28.553120 54.250928 42.829680
4396   1 28.553120 54.250928 45.684992
4397   1 28.553120 54.250928 48.540304
4398   1 28.553120 54.250928 51.395616
4399   1 28.553120 54.250928 54.250928
4400   1 31.408432  0.000000  0.000000
4401   1 31.408432  0.000000  2.855312
4402   1 31.408432  0.000000  5.710624
4403   1 31.408432  0.000000  8.565936
4404   1 31.408432  0.000000 11.421248
4405   1 31.408432  0.000000 14.276560
4406   1 31.408432  0.000000 17.131872
4407   1 31.408432  0.000000 19.987184
4408   1 31.408432  0.000000 22.842496
4409   1 31.408432  0.000000 25.697808
4410   1 31.408432  0.000000 28.553120
4411   1 31.408432  0.000000 31.408432
4412   1 31.408432  0.000000 34.263744
4413   1 31.408432  0.000000 37.119056
4414   1 31.408432  0.000000 39.974368
4415   1 31.408432  0.000000 42.829680
4416   1 31.408432  0.000000 45.684992
4417   1 31.408432  0.000000 48.540304
4418   1 31.408432  0.000000 51.395616
4419   1 31.408432  0.000000 54.250928
4420   1 31.408432  2.855312  0.000000
4421   1 31.408432  2.855312  2.855312
4422   1 31.408432  2.855312  5.710624
4423   1 31.408432  2.855312  8.565936
4424   1 31.408432  2.855312 11.421248
4425   1 31.408432  2.855312 14.276560
4426   1 31.408432  2.855312 17.131872
4427   1 31.408432  2.855312 19.987184
4428   1 31.408432  2.855312 22.842496
4429   1 31.408432  2.855312 25.697808
4430   1 31.408432  2.855312 28.553120
4431   1 31.408432  2.855312 31.408432
4432   1 31.408432  2.855312 34.263744
4433   1 31.408432  2.855312 37.119056
4434   1 31.408432  2.855312 39.974368
4435   1 31.408432  2.855312 42.829680
4436   1 31.408432  2.855312 45.684992
4437   1 31.408432  2.855312 48.540304
4438   1 31.408432  2.855312 51.395616
4439   1 31.408432  2.855312 54.250928
4440   1 31.408432  5.710624  0.000000
4441   1 31.408432  5.710624  2.855312
4442   1 31.408432  5.710624  5.710624
4443   1 31.408432  5.710624  8.565936
4444   1 31.408432  5.710624 11.421248
4445   1 31.408432  5.710624 14.276560
4446   1 31.408432  5.710624 17.131872
4447   1 31.408432  5.710624 19.987184
4448   1 31.408432  5.710624 22.842496
4449   1 31.408432  5.710624 25.697808
4450   1 31.408432  5.710624 28.553120
4451   1 31.408432  5.710624 31.408432
4452   1 31.408432  5.710624 34.263744
4453   1 31.408432  5.710624 37.119056
4454   1 31.408432  5.710624 39.974368
4455   1 31.408432  5.710624 42.829680
4456   1 31.408432  5.710624 45.684992
4457   1 31.408432  5.710624 48.540304
4458   1 31.408432  5.710624 51.395616
4459   1 31.408432  5.710624 54.250928
4460   1 31.408432  8.565936  0.000000
4461   1 31.408432  8.565936  2.855312
4462   1 31.408432  8.565936  5.710624
4463   1 31.408432  8.565936  8.565936
4464   1 31.408432  8.565936 11.421248
4465   1 31.408432  8.565936 14.276560
4466   1 31.408432  8.565936 17.131872
4467   1 31.408432  8.565936 19.987184
4468   1 31.408432  8.565936 22.842496
4469   1 31.408432  8.565936 25.697808
4470   1 31.408432  8.565936 28.553120
4471   1 31.408432  8.565936 31.408432
4472   1 31.408432  8.565936 34.263744
4473   1 31.408432  8.565936 37.119056
4474   1 31.408432  8.565936 39.974368
4475   1 31.408432  8.565936 42.829680
4476   1 31.408432  8.565936 45.684992
4477   1 31.408432  8.565936 48.540304
4478   1 31.408432  8.565936 51.395616
4479   1 31.408432  8.565936 54.250928
4480   1 31.408432 11.421248  0.000000
4481   1 31.408432 11.421248  2.855312
4482   1 31.408432 11.421248  5.710624
4483   1 31.408432 11.421248  8.565936
4484   1 31.408432 11.421248 11.421248
4485   1 31.408432 11.421248 14.276560
4486   1 31.408432 11.421248 17.131872
4487   1 31.408432 11.421248 19.987184
4488   1 31.408432 11.421248 22.842496
4489   1 31.408432 11.421248 25.697808
4490   1 31.408432 11.421248 28.553120
4491   1 31.408432 11.421248 31.408432
4492   1 31.408432 11.421248 34.263744
4493   1 31.408432 11.421248 37.119056
4494   1 31.408432 11.421248 39.974368
4495   1 31.408432 11.421248 42.829680
4496   1 31.408432 11.421248 45.684992
4497   1 31.408432 11.421248 48.540304
4498   1 31.408432 11.421248 51.395616
4499   1 31.408432 11.421248 54.250928
4500   1 31.408432 14.276560  0.000000
4501   1 31.408432 14.276560  2.855312
4502   1 31.408432 14.276560  5.710624
4503   1 31.408432 14.276560  8.565936
4504   1 31.408432 14.276560 11.421248
4505   1 31.408432 14.276560 14.276560
4506   1 31.408432 14.276560 17.131872
4507   1 31.408432 14.276560 19.987184
4508   1 31.408432 14.276560 22.842496
4509   1 31.408432 14.276560 25.697808
4510   1 31.408432 14.276560 28.553120
4511   1 31.408432 14.276560 31.408432
4512   1 31.408432 14.276560 34.263744
4513   1 31.408432 14.276560 37.119056
4514   1 31.408432 14.276560 39.974368
4515   1 31.408432 14.276560 42.829680
4516   1 31.408432 14.276560 45.684992
4517   1 31.408432 14.276560 48.540304
4518   1 31.408432 14.276560 51.395616
4519   1 31.408432 14.276560 54.250928
4520   1 31.408432 17.131872  0.000000
4521   1 31.408432 17.131872  2.855312
4522   1 31.408432 17.131872  5.710624
4523   1 31.408432 17.131872  8.565936
4524   1 31.408432 17.131872 11.421248
4525   1 31.408432 17.131872 14.276560
4526   1 31.408432 17.131872 17.131872
4527   1 31.408432 17.131872 19.987184
4528   1 31.408432 17.131872 22.842496
4529   1 31.408432 17.131872 25.697808
4530   1 31.408432 17.131872 28.553120
4531   1 31.408432 17.131872 31.408432
4532   1 31.408432 17.131872 34.263744
4533   1 31.408432 17.131872 37.119056
4534   1 31.408432 17.131872 39.974368
4535   1 31.408432 17.131872 42.829680
4536   1 31.408432 17.131872 45.684992
4537   1 31.408432 17.131872 48.540304
4538   1 31.408432 17.131872 51.395616
4539   1 31.408432 17.131872 54.250928
4540   1 31.408432 19.987184  0.000000
4541   1 31.408432 19.987184  2.855312
4542   1 31.408432 19.987184  5.710624
4543   1 31.408432 19.987184  8.565936
4544   1 31.408432 19.987184 11.421248
4545   1 31.408432 19.987184 14.276560
4546   1 31.408432 19.987184 17.131872
4547   1 31.408432 19.987184 19.987184
4548   1 31.408432 19.987184 22.842496
4549   1 31.408432 19.987184 25.697808
4550   1 31.408432 19.987184 28.553120
4551   1 31.408432 19.987184 31.408432
4552   1 31.408432 19.987184 34.263744
4553   1 31.408432 19.987184 37.119056
4554   1 31.408432 19.987184 39.974368
4555   1 31.408432 19.987184 42.829680
4556   1 31.408432 19.987184 45.684992
4557   1 31.408432 19.987184 48.540304
4558   1 31.408432 19.987184 51.395616
4559   1 31.408432 19.987184 54.250928
4560   1 31.408432 22.842496  0.000000
4561   1 31.408432 22.842496  2.855312
4562   1 31.408432 22.842496  5.710624
4563   1 31.408432 22.842496  8.565936
4564   1 31.408432 22.842496 11.421248
4565   1 31.408432 22.842496 14.276560
4566   1 31.408432 22.842496 17.131872
4567   1 31.408432 22.842496 19.987184
4568   1 31.408432 22.842496 22.842496
4569   1 31.408432 22.842496 25.697808
4570   1 31.408432 22.842496 28.553120
4571   1 31.408432 22.842496 31.408432
4572   1 31.408432 22.842496 34.263744
4573   1 31.408432 22.842496 37.119056
4574   1 31.408432 22.842496 39.974368
4575   1 31.408432 22.842496 42.829680
4576   1 31.408432 22.842496 45.684992
4577   1 31.408432 22.842496 48.540304
4578   1 31.408432 22.842496 51.395616
4579   1 31.408432 22.842496 54.250928
4580   1 31.408432 25.697808  0.000000
4581   1 31.408432 25.697808  2.855312
4582   1 31.408432 25.697808  5.710624
4583   1 31.408432 25.697808  8.565936
4584   1 31.408432 25.697808 11.421248
4585   1 31.408432 25.697808 14.276560
4586   1 31.408432 25.697808 17.131872
4587   1 31.408432 25.697808 19.987184
4588   1 31.408432 25.697808 22.842496
4589   1 31.408432 25.697808 25.697808
4590   1 31.408432 25.697808 28.553120
4591   1 31.408432 25.697808 31.408432
4592   1 31.408432 25.697808 34.263744
4593   1 31.408432 25.697808 37.119056
4594   1 31.408432 25.697808 39.974368
4595   1 31.408432 25.697808 42.829680
4596   1 31.408432 25.697808 45.684992
4597   1 31.408432 25.697808 48.540304
4598   1 31.408432 25.697808 51.395616
4599   1 31.408432 25.697808 54.250928
4600   1 31.408432 28.553120  0.000000
4601   1 31.408432 28.553120  2.855312
4602   1 31.408432 28.553120  5.710624
4603   1 31.408432 28.553120  8.565936
4604   1 31.408432 28.553120 11.421248
4605   1 31.408432 28.553120 14.276560
4606   1 31.408432 28.553120 17.131872
4607   1 31.408432 28.553120 19.987184
4608   1 31.408432 28.553120 22.842496
4609   1 31.408432 28.553120 25.697808
4610   1 31.408432 28.553120 28.553120
4611   1 31.408432 28.553120 31.408432
4612   1 31.408432 28.553120 34.263744
4613   1 31.408432 28.553120 37.119056
4614   1 31.408432 28.553120 39.974368
4615   1 31.408432 28.553120 42.829680
4616   1 31.408432 28.553120 45.684992
4617   1 31.408432 28.553120 48.540304
4618   1 31.408432 28.553120 51.395616
4619   1 31.408432 28.553120 54.250928
4620   1 31.408432 31.408432  0.000000
4621   1 31.408432 31.408432  2.855312
4622   1 31.408432 31.408432  5.710624
4623   1 31.408432 31.408432  8.565936
4624   1 31.408432 31.408432 11.421248
4625   1 31.408432 31.408432 14.276560
4626   1 31.408432 31.408432 17.131872
4627   1 31.408432 31.408432 19.987184
4628   1 31.408432 31.408432 22.842496
4629   1 31.408432 31.408432 25.697808
4630   1 31.408432 31.408432 28.553120
4631   1 31.408432 31.408432 31.408432
4632   1 31.408432 31.408432 34.263744
4633   1 31.408432 31.408432 37.119056
4634   1 31.408432 31.408432 39.974368
4635   1 31.408432 31.408432 42.829680
4636   1 31.408432 31.408432 45.684992
4637   1 31.408432 31.408432 48.540304
4638   1 31.408432 31.408432 51.395616
4639   1 31.408432 31.408432 54.250928
4640   1 31.408432 34.263744  0.000000
4641   1 31.408432 34.263744  2.855312
4642   1 31.408432 34.263744  5.710624
4643   1 31.408432 34.263744  8.565936
4644   1 31.408432 34.263744 11.421248
4645   1 31.408432 34.263744 14.276560
4646   1 31.408432 34.263744 17.131872
4647   1 31.408432 34.263744 19.987184
4648   1 31.408432 34.263744 22.842496
4649   1 31.408432 34.263744 25.697808
4650   1 31.408432 34.263744 28.553120
4651   1 31.408432 34.263744 31.408432
4652   1 31.408432 34.263744 34.263744
4653   1 31.408432 34.263744 37.119056
4654   1 31.408432 34.263744 39.974368
4655   1 31.408432 34.263744 42.829680
4656   1 31.408432 34.263744 45.684992
4657   1 31.408432 34.263744 48.540304
4658   1 31.408432 34.263744 51.395616
4659   1 31.408432 34.263744 54.250928
4660   1 31.408432 37.119056  0.000000
4661   1 31.408432 37.119056  2.855312
4662   1 31.408432 37.119056  5.710624
4663   1 31.408432 37.119056  8.565936
4664   1 31.408432 37.119056 11.421248
4665   1 31.408432 37.119056 14.276560
4666   1 31.408432 37.119056 17.131872
4667   1 31.408432 37.119056 19.987184
4668   1 31.408432 37.119056 22.842496
4669   1 31.408432 37.119056 25.697808
4670   1 31.408432 37.119056 28.553120
4671   1 31.408432 37.119056 31.408432
4672   1 31.408432 37.119056 34.263744
4673   1 31.408432 37.119056 37.119056
4674   1 31.408432 37.119056 39.974368
4675   1 31.408432 37.119056 42.829680
4676   1 31.408432 37.119056 45.684992
4677   1 31.408432 37.119056 48.540304
4678   1 31.408432 37.119056 51.395616
4679   1 31.408432 37.119056 54.250928
4680   1 31.408432 39.974368  0.000000
4681   1 31.408432 39.974368  2.855312
4682   1 31.408432 39.974368  5.710624
4683   1 31.408432 39.974368  8.565936
4684   1 31.408432 39.974368 11.421248
4685   1 31.408432 39.974368 14.276560
4686   1 31.408432 39.974368 17.131872
4687   1 31.408432 39.974368 19.987184
4688   1 31.408432 39.974368 22.842496
4689   1 31.408432 39.974368 25.697808
4690   1 31.408432 39.974368 28.553120
4691   1 31.408432 39.974368 31.408432
4692   1 31.408432 39.974368 34.263744
4693   1 31.408432 39.974368 37.119056
4694   1 31.408432 39.974368 39.974368
4695   1 31.408432 39.974368 42.829680
4696   1 31.408432 39.974368 45.684992
4697   1 31.408432 39.974368 48.540304
4698   1 31.408432 39.974368 51.395616
4699   1 31.408432 39.974368 54.250928
4700   1 31.408432 42.829680  0.000000
4701   1 31.408432 42.829680  2.855312
4702   1 31.408432 42.829680  5.710624
4703   1 31.408432 42.829680  8.565936
4704   1 31.408432 42.829680 11.421248
4705   1 31.408432 42.829680 14.276560
4706   1 31.408432 42.829680 17.131872
4707   1 31.408432 42.829680 19.987184
4708   1 31.408432 42.829680 22.842496
4709   1 31.408432 42.829680 25.697808
4710   1 31.408432 42.829680 28.553120
4711   1 31.408432 42.829680 31.408432
4712   1 31.408432 42.829680 34.263744
4713   1 31.408432 42.829680 37.119056
4714   1 31.408432 42.829680 39.974368
4715   1 31.408432 42.829680 42.829680
4716   1 31.408432 42.829680 45.684992
4717   1 31.408432 42.829680 48.540304
4718   1 31.408432 42.829680 51.395616
4719   1 31.408432 42.829680 54.250928
4720   1 31.408432 45.684992  0.000000
4721   1 31.408432 45.684992  2.855312
4722   1 31.408432 45.684992  5.710624
4723   1 31.408432 45.684992  8.565936
4724   1 31.408432 45.684992 11.421248
4725   1 31.408432 45.684992 14.276560
4726   1 31.408432 45.684992 17.131872
4727   1 31.408432 45.684992 19.987184
4728   1 31.408432 45.684992 22.842496
4729   1 31.408432 45.684992 25.697808
4730   1 31.408432 45.684992 28.553120
4731   1 31.408432 45.684992 31.408432
4732   1 31.408432 45.684992 34.263744
4733   1 31.408432 45.684992 37.119056
4734   1 31.408432 45.684992 39.974368
4735   1 31.408432 45.684992 42.829680
4736   1 31.408432 45.684992 45.684992
4737   1 31.408432 45.684992 48.540304
4738   1 31.408432 45.684992 51.395616
4739   1 31.408432 45.684992 54.250928
4740   1 31.408432 48.540304  0.000000
4741   1 31.408432 48.540304  2.855312
4742   1 31.408432 48.540304  5.710624
4743   1 31.408432 48.540304  8.565936
4744   1 31.408432 48.540304 11.421248
4745   1 31.408432 48.540304 14.276560
4746   1 31.408432 48.540304 17.131872
4747   1 31.408432 48.540304 19.987184
4748   1 31.408432 48.540304 22.842496
4749   1 31.408432 48.540304 25.697808
4750   1 31.408432 48.540304 28.553120
4751   1 31.408432 48.540304 31.408432
4752   1 31.408432 48.540304 34.263744
4753   1 31.408432 48.540304 37.119056
4754   1 31.408432 48.540304 39.974368
4755   1 31.408432 48.540304 42.829680
4756   1 31.408432 48.540304 45.684992
4757   1 31.408432 48.540304 48.540304
4758   1 31.408432 48.540304 51.395616
4759   1 31.408432 48.540304 54.250928
4760   1 31.408432 51.395616  0.000000
4761   1 31.408432 51.395616  2.855312
4762   1 31.408432 51.395616  5.710624
4763   1 31.408432 51.395616  8.565936
4764   1 31.408432 51.395616 11.421248
4765   1 31.408432 51.395616 14.276560
4766   1 31.408432 51.395616 17.131872
4767   1 31.408432 51.395616 19.987184
4768   1 31.408432 51.395616 22.842496
4769   1 31.408432 51.395616 25.697808
4770   1 31.408432 51.395616 28.553120
4771   1 31.408432 51.395616 31.408432
4772   1 31.408432 51.395616 34.263744
4773   1 31.408432 51.395616 37.119056
4774   1 31.408432 51.395616 39.974368
4775   1 31.408432 51.395616 42.829680
4776   1 31.408432 51.395616 45.684992
4777   1 31.408432 51.395616 48.540304
4778   1 31.408432 51.395616 51.395616
4779   1 31.408432 51.395616 54.250928
4780   1 31.408432 54.250928  0.000000
4781   1 31.408432 54.250928  2.855312
4782   1 31.408432 54.250928  5.710624
4783   1 31.408432 54.250928  8.565936
4784   1 31.408432 54.250928 11.421248
4785   1 31.408432 54.250928 14.276560
4786   1 31.408432 54.250928 17.131872
4787   1 31.408432 54.250928 19.987184
4788   1 31.408432 54.250928 22.842496
4789   1 31.408432 54.250928 25.697808
4790   1 31.408432 54.250928 28.553120
4791   1 31.408432 54.250928 31.408432
4792   1 31.408432 54.250928 34.263744
4793   1 31.408432 54.250928 37.119056
4794   1 31.408432 54.250928 39.974368
4795   1 31.408432 54.250928 42.829680
4796   1 31.408432 54.250928 45.684992
4797   1 31.408432 54.250928 48.540304
4798   1 31.408432 54.250928 51.395616
4799   1 31.408432 54.250928 54.250928
4800   1 34.263744  0.000000  0.000000
4801   1 34.263744  0.000000  2.855312
4802   1 34.263744  0.000000  5.710624
4803   1 34.263744  0.000000  8.565936
4804   1 34.263744  0.000000 11.421248
4805   1 34.263744  0.000000 14.276560
4806   1 34.263744  0.000000 17.131872
4807   1 34.263744  0.000000 19.987184
4808   1 34.263744  0.000000 22.842496
4809   1 34.263744  0.000000 25.697808
4810   1 34.263744  0.000000 28.553120
4811   1 34.263744  0.000000 31.408432
4812   1 34.263744  0.000000 34.263744
4813   1 34.263744  0.000000 37.119056
4814   1 34.263744  0.000000 39.974368
4815   1 34.263744  0.000000 42.829680
4816   1 34.263744  0.000000 45.684992
4817   1 34.263744  0.000000 48.540304
4818   1 34.263744  0.000000 51.395616
4819   1 34.263744  0.000000 54.250928
4820   1 34.263744  2.855312  0.000000
4821   1 34.263744  2.855312  2.855312
4822   1 34.263744  2.855312  5.710624
4823   1 34.263744  2.855312  8.565936
4824   1 34.263744  2.855312 11.421248
4825   1 34.263744  2.855312 14.276560
4826   1 34.263744  2.855312 17.131872
4827   1 34.263744  2.855312 19.987184
4828   1 34.263744  2.855312 22.842496
4829   1 34.263744  2.855312 25.697808
4830   1 34.263744  2.855312 28.553120
4831   1 34.263744  2.855312 31.408432
4832   1 34.263744  2.855312 34.263744
4833   1 34.263744  2.855312 37.119056
4834   1 34.263744  2.855312 39.974368
4835   1 34.263744  2.855312 42.829680
4836   1 34.263744  2.855312 45.684992
4837   1 34.263744  2.855312 48.540304
4838   1 34.263744  2.855312 51.395616
4839   1 34.263744  2.855312 54.250928
4840   1 34.263744  5.710624  0.000000
4841   1 34.263744  5.710624  2.855312
4842   1 34.263744  5.710624  5.710624
4843   1 34.263744  5.710624  8.565936
4844   1 34.263744  5.710624 11.421248
4845   1 34.263744  5.710624 14.276560
4846   1 34.263744  5.710624 17.131872
4847   1 34.263744  5.710624 19.987184
4848   1 34.263744  5.710624 22.842496
4849   1 34.263744  5.710624 25.697808
4850   1 34.263744  5.710624 28.553120
4851   1 34.263744  5.710624 31.408432
4852   1 34.263744  5.710624 34.263744
4853   1 34.263744  5.710624 37.119056
4854   1 34.263744  5.710624 39.974368
4855   1 34.263744  5.710624 42.829680
4856   1 34.263744  5.710624 45.684992
4857   1 34.263744  5.710624 48.540304
4858   1 34.263744  5.710624 51.395616
4859   1 34.263744  5.710624 54.250928
4860   1 34.263744  8.565936  0.000000
4861   1 34.263744  8.565936  2.855312
4862   1 34.263744  8.565936  5.710624
4863   1 34.263744  8.565936  8.565936
4864   1 34.263744  8.565936 11.421248
4865   1 34.263744  8.565936 14.276560
4866   1 34.263744  8.565936 17.131872
4867   1 34.263744  8.565936 19.987184
4868   1 34.263744  8.565936 22.842496
4869   1 34.263744  8.565936 25.697808
4870   1 34.263744  8.565936 28.553120
4871   1 34.263744  8.565936 31.408432
4872   1 34.263744  8.565936 34.263744
4873   1 34.263744  8.565936 37.119056
4874   1 34.263744  8.565936 39.974368
4875   1 34.263744  8.565936 42.829680
4876   1 34.263744  8.565936 45.684992
4877   1 34.263744  8.565936 48.540304
4878   1 34.263744  8.565936 51.395616
4879   1 34.263744  8.565936 54.250928
4880   1 34.263744 11.421248  0.000000
4881   1 34.263744 11.421248  2.855312
4882   1 34.263744 11.421248  5.710624
4883   1 34.263744 11.421248  8.565936
4884   1 34.263744 11.421248 11.421248
4885   1 34.263744 11.421248 14.276560
4886   1 34.263744 11.421248 17.131872
4887   1 34.263744 11.421248 19.987184
4888   1 34.263744 11.421248 22.842496
4889   1 34.263744 11.421248 25.697808
4890   1 34.263744 11.421248 28.553120
4891   1 34.263744 11.421248 31.408432
4892   1 34.263744 11.421248 34.263744
4893   1 34.263744 11.421248 37.119056
4894   1 34.263744 11.421248 39.974368
4895   1 34.263744 11.421248 42.829680
4896   1 34.263744 11.421248 45.684992
4897   1 34.263744 11.421248 48.540304
4898   1 34.263744 11.421248 51.395616
4899   1 34.263744 11.421248 54.250928
4900   1 34.263744 14.276560  0.000000
4901   1 34.263744 14.276560  2.855312
4902   1 34.263744 14.276560  5.710624
4903   1 34.263744 14.276560  8.565936
4904   1 34.263744 14.276560 11.421248
4905   1 34.263744 14.276560 14.276560
4906   1 34.263744 14.276560 17.131872
4907   1 34.263744 14.276560 19.987184
4908   1 34.263744 14.276560 22.842496
4909   1 34.263744 14.276560 25.697808
4910   1 34.263744 14.276560 28.553120
4911   1 34.263744 14.276560 31.408432
4912   1 34.263744 14.276560 34.263744
4913   1 34.263744 14.276560 37.119056
4914   1 34.263744 14.276560 39.974368
4915   1 34.263744 14.276560 42.829680
4916   1 34.263744 14.276560 45.684992
4917   1 34.263744 14.276560 48.540304
4918   1 34.263744 14.276560 51.395616
4919   1 34.263744 14.276560 54.250928
4920   1 34.263744 17.131872  0.000000
4921   1 34.263744 17.131872  2.855312
4922   1 34.263744 17.131872  5.710624
4923   1 34.263744 17.131872  8.565936
4924   1 34.263744 17.131872 11.421248
4925   1 34.263744 17.131872 14.276560
4926   1 34.263744 17.131872 17.131872
4927   1 34.263744 17.131872 19.987184
4928   1 34.263744 17.131872 22.842496
4929   1 34.263744 17.131872 25.697808
4930   1 34.263744 17.131872 28.553120
4931   1 34.263744 17.131872 31.408432
4932   1 34.263744 17.131872 34.263744
4933   1 34.263744 17.131872 37.119056
4934   1 34.263744 17.131872 39.974368
4935   1 34.263744 17.131872 42.829680
4936   1 34.263744 17.131872 45.684992
4937   1 34.263744 17.131872 48.540304
4938   1 34.263744 17.131872 51.395616
4939   1 34.263744 17.131872 54.250928
4940   1 34.263744 19.987184  0.000000
4941   1 34.263744 19.987184  2.855312
4942   1 34.263744 19.987184  5.710624
4943   1 34.263744 19.987184  8.565936
4944   1 34.263744 19.987184 11.421248
4945   1 34.263744 19.987184 14.276560
4946   1 34.263744 19.987184 17.131872
4947   1 34.263744 19.987184 19.987184
4948   1 34.263744 19.987184 22.842496
4949   1 34.263744 19.987184 25.697808
4950   1 34.263744 19.987184 28.553120
4951   1 34.263744 19.987184 31.408432
4952   1 34.263744 19.987184 34.263744
4953   1 34.263744 19.987184 37.119056
4954   1 34.263744 19.987184 39.974368
4955   1 34.263744 19.987184 42.829680
4956   1 34.263744 19.987184 45.684992
4957   1 34.263744 19.987184 48.540304
4958   1 34.263744 19.987184 51.395616
4959   1 34.263744 19.987184 54.250928
4960   1 34.263744 22.842496  0.000000
4961   1 34.263744 22.842496  2.855312
4962   1 34.263744 22.842496  5.710624
4963   1 34.263744 22.842496  8.565936
4964   1 34.263744 22.842496 11.421248
4965   1 34.263744 22.842496 14.276560
4966   1 34.263744 22.842496 17.131872
4967   1 34.263744 22.842496 19.987184
4968   1 34.263744 22.842496 22.842496
4969   1 34.263744 22.842496 25.697808
4970   1 34.263744 22.842496 28.553120
4971   1 34.263744 22.842496 31.408432
4972   1 34.263744 22.842496 34.263744
4973   1 34.263744 22.842496 37.119056
4974   1 34.263744 22.842496 39.974368
4975   1 34.263744 22.842496 42.829680
4976   1 34.263744 22.842496 45.684992
4977   1 34.263744 22.842496 48.540304
4978   1 34.263744 22.842496 51.395616
4979   1 34.263744 22.842496 54.250928
4980   1 34.263744 25.697808  0.000000
4981   1 34.263744 25.697808  2.855312
4982   1 34.263744 25.697808  5.710624
4983   1 34.263744 25.697808  8.565936
4984   1 34.263744 25.697808 11.421248
4985   1 34.263744 25.697808 14.276560
4986   1 34.263744 25.697808 17.131872
4987   1 34.263744 25.697808 19.987184
4988   1 34.263744 25.697808 22.842496
4989   1 34.263744 25.697808 25.697808
4990   1 34.263744 25.697808 28.553120
4991   1 34.263744 25.697808 31.408432
4992   1 34.263744 25.697808 34.263744
4993   1 34.263744 25.697808 37.119056
4994   1 34.263744 25.697808 39.974368
4995   1 34.263744 25.697808 42.829680
4996   1 34.263744 25.697808 45.684992
4997   1 34.263744 25.697808 48.540304
4998   1 34.263744 25.697808 51.395616
4999   1 34.263744 25.697808 54.250928
5000   1 34.263744 28.553120  0.000000
5001   1 34.263744 28.553120  2.855312
5002   1 34.263744 28.553120  5.710624
5003   1 34.263744 28.553120  8.565936
5004   1 34.263744 28.553120 11.421248
5005   1 34.263744 28.553120 14.276560
5006   1 34.263744 28.553120 17.131872
5007   1 34.263744 28.553120 19.987184
5008   1 34.263744 28.553120 22.842496
5009   1 34.263744 28.553120 25.697808
5010   1 34.263744 28.553120 28.553120
5011   1 34.263744 28.553120 31.408432
5012   1 34.263744 28.553120 34.263744
5013   1 34.263744 28.553120 37.119056
5014   1 34.263744 28.553120 39.974368
5015   1 34.263744 28.553120 42.829680
5016   1 34.263744 28.553120 45.684992
5017   1 34.263744 28.553120 48.540304
5018   1 34.263744 28.553120 51.395616
5019   1 34.263744 28.553120 54.250928
5020   1 34.263744 31.408432  0.000000
5021   1 34.263744 31.408432  2.855312
5022   1 34.263744 31.408432  5.710624
5023   1 34.263744 31.408432  8.565936
5024   1 34.263744 31.408432 11.421248
5025   1 34.263744 31.408432 14.276560
5026   1 34.263744 31.408432 17.131872
5027   1 34.263744 31.408432 19.987184
5028   1 34.263744 31.408432 22.842496
5029   1 34.263744 31.408432 25.697808
5030   1 34.263744 31.408432 28.553120
5031   1 34.263744 31.408432 31.408432
5032   1 34.263744 31.408432 34.263744
5033   1 34.263744 31.408432 37.119056
5034   1 34.263744 31.408432 39.974368
5035   1 34.263744 31.408432 42.829680
5036   1 34.263744 31.408432 45.684992
5037   1 34.263744 31.408432 48.540304
5038   1 34.263744 31.408432 51.395616
5039   1 34.263744 31.408432 54.250928
5040   1 34.263744 34.263744  0.000000
5041   1 34.263744 34.263744  2.855312
5042   1 34.263744 34.263744  5.710624
5043   1 34.263744 34.263744  8.565936
5044   1 34.263744 34.263744 11.421248
5045   1 34.263744 34.263744 14.276560
5046   1 34.263744 34.263744 17.131872
5047   1 34.263744 34.263744 19.987184
5048   1 34.263744 34.263744 22.842496
5049   1 34.263744 34.263744 25.697808
5050   1 34.263744 34.263744 28.553120
5051   1 34.263744 34.263744 31.408432
5052   1 34.263744 34.263744 34.263744
5053   1 34.263744 34.263744 37.119056
5054   1 34.263744 34.263744 39.974368
5055   1 34.263744 34.263744 42.829680
5056   1 34.263744 34.263744 45.684992
5057   1 34.263744 34.263744 48.540304
5058   1 34.263744 34.263744 51.395616
5059   1 34.263744 34.263744 54.250928
5060   1 34.263744 37.119056  0.000000
5061   1 34.263744 37.119056  2.855312
5062   1 34.263744 37.119056  5.710624
5063   1 34.263744 37.119056  8.565936
5064   1 34.263744 37.119056 11.421248
5065   1 34.263744 37.119056 14.276560
5066   1 34.263744 37.119056 17.131872
5067   1 34.263744 37.119056 19.987184
5068   1 34.263744 37.119056 22.842496
5069   1 34.263744 37.119056 25.697808
5070   1 34.263744 37.119056 28.553120
5071   1 34.263744 37.119056 31.408432
5072   1 34.263744 37.119056 34.263744
5073   1 34.263744 37.119056 37.119056
5074   1 34.263744 37.119056 39.974368
5075   1 34.263744 37.119056 42.829680
5076   1 34.263744 37.119056 45.684992
5077   1 34.263744 37.119056 48.540304
5078   1 34.263744 37.119056 51.395616
5079   1 34.263744 37.119056 54.250928
5080   1 34.263744 39.974368  0.000000
5081   1 34.263744 39.974368  2.855312
5082   1 34.263744 39.974368  5.710624
5083   1 34.263744 39.974368  8.565936
5084   1 34.263744 39.974368 11.421248
5085   1 34.263744 39.974368 14.276560
5086   1 34.263744 39.974368 17.131872
5087   1 34.263744 39.974368 19.987184
5088   1 34.263744 39.974368 22.842496
5089   1 34.263744 39.974368 25.697808
5090   1 34.263744 39.974368 28.553120
5091   1 34.263744 39.974368 31.408432
5092   1 34.263744 39.974368 34.263744
5093   1 34.263744 39.974368 37.119056
5094   1 34.263744 39.974368 39.974368
5095   1 34.263744 39.974368 42.829680
5096   1 34.263744 39.974368 45.684992
5097   1 34.263744 39.974368 48.540304
5098   1 34.263744 39.974368 51.395616
5099   1 34.263744 39.974368 54.250928
5100   1 34.263744 42.829680  0.000000
5101   1 34.263744 42.829680  2.855312
5102   1 34.263744 42.829680  5.710624
5103   1 34.263744 42.829680  8.565936
5104   1 34.263744 42.829680 11.421248
5105   1 34.263744 42.829680 14.276560
5106   1 34.263744 42.829680 17.131872
5107   1 34.263744 42.829680 19.987184
5108   1 34.263744 42.829680 22.842496
5109   1 34.263744 42.829680 25.697808
5110   1 34.263744 42.829680 28.553120
5111   1 34.263744 42.829680 31.408432
5112   1 34.263744 42.829680 34.263744
5113   1 34.263744 42.829680 37.119056
5114   1 34.263744 42.829680 39.974368
5115   1 34.263744 42.829680 42.829680
5116   1 34.263744 42.829680 45.684992
5117   1 34.263744 42.829680 48.540304
5118   1 34.263744 42.829680 51.395616
5119   1 34.263744 42.829680 54.250928
5120   1 34.263744 45.684992  0.000000
5121   1 34.263744 45.684992  2.855312
5122   1 34.263744 45.684992  5.710624
5123   1 34.263744 45.684992  8.565936
5124   1 34.263744 45.684992 11.421248
5125   1 34.263744 45.684992 14.276560
5126   1 34.263744 45.684992 17.131872
5127   1 34.263744 45.684992 19.987184
5128   1 34.263744 45.684992 22.842496
5129   1 34.263744 45.684992 25.697808
5130   1 34.263744 45.684992 28.553120
5131   1 34.263744 45.684992 31.408432
5132   1 34.263744 45.684992 34.263744
5133   1 34.263744 45.684992 37.119056
5134   1 34.263744 45.684992 39.974368
5135   1 34.263744 45.684992 42.829680
5136   1 34.263744 45.684992 45.684992
5137   1 34.263744 45.684992 48.540304
5138   1 34.263744 45.684992 51.395616
5139   1 34.263744 45.684992 54.250928
5140   1 34.263744 48.540304  0.000000
5141   1 34.263744 48.540304  2.855312
5142   1 34.263744 48.540304  5.710624
5143   1 34.263744 48.540304  8.565936
5144   1 34.263744 48.540304 11.421248
5145   1 34.263744 48.540304 14.276560
5146   1 34.263744 48.540304 17.131872
5147   1 34.263744 48.540304 19.987184
5148   1 34.263744 48.540304 22.842496
5149   1 34.263744 48.540304 25.697808
5150   1 34.263744 48.540304 28.553120
5151   1 34.263744 48.540304 31.408432
5152   1 34.263744 48.540304 34.263744
5153   1 34.263744 48.540304 37.119056
5154   1 34.263744 48.540304 39.974368
5155   1 34.263744 48.540304 42.829680
5156   1 34.263744 48.540304 45.684992
5157   1 34.263744 48.540304 48.540304
5158   1 34.263744 48.540304 51.395616
5159   1 34.263744 48.540304 54.250928
5160   1 34.263744 51.395616  0.000000
5161   1 34.263744 51.395616  2.855312
5162   1 34.263744 51.395616  5.710624
5163   1 34.263744 51.395616  8.565936
5164   1 34.263744 51.395616 11.421248
5165   1 34.263744 51.395616 14.276560
5166   1 34.263744 51.395616 17.131872
5167   1 34.263744 51.395616 19.987184
5168   1 34.263744 51.395616 22.842496
5169   1 34.263744 51.395616 25.697808
5170   1 34.263744 51.395616 28.553120
5171   1 34.263744 51.395616 31.408432
5172   1 34.263744 51.395616 34.263744
5173   1 34.263744 51.395616 37.119056
5174   1 34.263744 51.395616 39.974368
5175   1 34.263744 51.395616 42.829680
5176   1 34.263744 51.395616 45.684992
5177   1 34.263744 51.395616 48.540304
5178   1 34.263744 51.395616 51.395616
5179   1 34.263744 51.395616 54.250928
5180   1 34.263744 54.250928  0.000000
5181   1 34.263744 54.250928  2.855312
5182   1 34.263744 54.250928  5.710624
5183   1 34.263744 54.250928  8.565936
5184   1 34.263744 54.250928 11.421248
5185   1 34.263744 54.250928 14.276560
5186   1 34.263744 54.250928 17.131872
5187   1 34.263744 54.250928 19.987184
5188   1 34.263744 54.250928 22.842496
5189   1 34.263744 54.250928 25.697808
5190   1 34.263744 54.250928 28.553120
5191   1 34.263744 54.250928 31.408432
5192   1 34.263744 54.250928 34.263744
5193   1 34.263744 54.250928 37.119056
5194   1 34.263744 54.250928 39.974368
5195   1 34.263744 54.250928 42.829680
5196   1 34.263744 54.250928 45.684992
5197   1 34.263744 54.250928 48.540304
5198   1 34.263744 54.250928 51.395616
5199   1 34.263744 54.250928 54.250928
5200   1 37.119056  0.000000  0.000000
5201   1 37.119056  0.000000  2.855312
5202   1 37.119056  0.000000  5.710624
5203   1 37.119056  0.000000  8.565936
5204   1 37.119056  0.000000 11.421248
5205   1 37.119056  0.000000 14.276560
5206   1 37.119056  0.000000 17.131872
5207   1 37.119056  0.000000 19.987184
5208   1 37.119056  0.000000 22.842496
5209   1 37.119056  0.000000 25.697808
5210   1 37.119056  0.000000 28.553120
5211   1 37.119056  0.000000 31.408432
5212   1 37.119056  0.000000 34.263744
5213   1 37.119056  0.000000 37.119056
5214   1 37.119056  0.000000 39.974368
5215   1 37.119056  0.000000 42.829680
5216   1 37.119056  0.000000 45.684992
5217   1 37.119056  0.000000 48.540304
5218   1 37.119056  0.000000 51.395616
5219   1 37.119056  0.000000 54.250928
5220   1 37.119056  2.855312  0.000000
5221   1 37.119056  2.855312  2.855312
5222   1 37.119056  2.855312  5.710624
5223   1 37.119056  2.855312  8.565936
5224   1 37.119056  2.855312 11.421248
5225   1 37.119056  2.855312 14.276560
5226   1 37.119056  2.855312 17.131872
5227   1 37.119056  2.855312 19.987184
5228   1 37.119056  2.855312 22.842496
5229   1 37.119056  2.855312 25.697808
5230   1 37.119056  2.855312 28.553120
5231   1 37.119056  2.855312 31.408432
5232   1 37.119056  2.855312 34.263744
5233   1 37.119056  2.855312 37.119056
5234   1 37.119056  2.855312 39.974368
5235   1 37.119056  2.855312 42.829680
5236   1 37.119056  2.855312 45.684992
5237   1 37.119056  2.855312 48.540304
5238   1 37.119056  2.855312 51.395616
5239   1 37.119056  2.855312 54.250928
5240   1 37.119056  5.710624  0.000000
5241   1 37.119056  5.710624  2.855312
5242   1 37.119056  5.710624  5.710624
5243   1 37.119056  5.710624  8.565936
5244   1 37.119056  5.710624 11.421248
5245   1 37.119056  5.710624 14.276560
5246   1 37.119056  5.710624 17.131872
5247   1 37.119056  5.710624 19.987184
5248   1 37.119056  5.710624 22.842496
5249   1 37.119056  5.710624 25.697808
5250   1 37.119056  5.710624 28.553120
5251   1 37.119056  5.710624 31.408432
5252   1 37.119056  5.710624 34.263744
5253   1 37.119056  5.710624 37.119056
5254   1 37.119056  5.710624 39.974368
5255   1 37.119056  5.710624 42.829680
5256   1 37.119056  5.710624 45.684992
5257   1 37.119056  5.710624 48.540304
5258   1 37.119056  5.710624 51.395616
5259   1 37.119056  5.710624 54.250928
5260   1 37.119056  8.565936  0.000000
5261   1 37.119056  8.565936  2.855312
5262   1 37.119056  8.565936  5.710624
5263   1 37.119056  8.565936  8.565936
5264   1 37.119056  8.565936 11.421248
5265   1 37.119056  8.565936 14.276560
5266   1 37.119056  8.565936 17.131872
5267   1 37.119056  8.565936 19.987184
5268   1 37.119056  8.565936 22.842496
5269   1 37.119056  8.565936 25.697808
5270   1 37.119056  8.565936 28.553120
5271   1 37.119056  8.565936 31.408432
5272   1 37.119056  8.565936 34.263744
5273   1 37.119056  8.565936 37.119056
5274   1 37.119056  8.565936 39.974368
5275   1 37.119056  8.565936 42.829680
5276   1 37.119056  8.565936 45.684992
5277   1 37.119056  8.565936 48.540304
5278   1 37.119056  8.565936 51.395616
5279   1 37.119056  8.565936 54.250928
5280   1 37.119056 11.421248  0.000000
5281   1 37.119056 11.421248  2.855312
5282   1 37.119056 11.421248  5.710624
5283   1 37.119056 11.421248  8.565936
5284   1 37.119056 11.421248 11.421248
5285   1 37.119056 11.421248 14.276560
5286   1 37.119056 11.421248 17.131872
5287   1 37.119056 11.421248 19.987184
5288   1 37.119056 11.421248 22.842496
5289   1 37.119056 11.421248 25.697808
5290   1 37.119056 11.421248 28.553120
5291   1 37.119056 11.421248 31.408432
5292   1 37.119056 11.421248 34.263744
5293   1 37.119056 11.421248 37.119056
5294   1 37.119056 11.421248 39.974368
5295   1 37.119056 11.421248 42.829680
5296   1 37.119056 11.421248 45.684992
5297   1 37.119056 11.421248 48.540304
5298   1 37.119056 11.421248 51.395616
5299   1 37.119056 11.421248 54.250928
5300   1 37.119056 14.276560  0.000000
5301   1 37.119056 14.276560  2.855312
5302   1 37.119056 14.276560  5.710624
5303   1 37.119056 14.276560  8.565936
5304   1 37.119056 14.276560 11.421248
5305   1 37.119056 14.276560 14.276560
5306   1 37.119056 14.276560 17.131872
5307   1 37.119056 14.276560 19.987184
5308   1 37.119056 14.276560 22.842496
5309   1 37.119056 14.276560 25.697808
5310   1 37.119056 14.276560 28.553120
5311   1 37.119056 14.276560 31.408432
5312   1 37.119056 14.276560 34.263744
5313   1 37.119056 14.276560 37.119056
5314   1 37.119056 14.276560 39.974368
5315   1 37.119056 14.276560 42.829680
5316   1 37.119056 14.276560 45.684992
5317   1 37.119056 14.276560 48.540304
5318   1 37.119056 14.276560 51.395616
5319   1 37.119056 14.276560 54.250928
5320   1 37.119056 17.131872  0.000000
5321   1 37.119056 17.131872  2.855312
5322   1 37.119056 17.131872  5.710624
5323   1 37.119056 17.131872  8.565936
5324   1 37.119056 17.131872 11.421248
5325   1 37.119056 17.131872 14.276560
5326   1 37.119056 17.131872 17.131872
5327   1 37.119056 17.131872 19.987184
5328   1 37.119056 17.131872 22.842496
5329   1 37.119056 17.131872 25.697808
5330   1 37.119056 17.131872 28.553120
5331   1 37.119056 17.131872 31.408432
5332   1 37.119056 17.131872 34.263744
5333   1 37.119056 17.131872 37.119056
5334   1 37.119056 17.131872 39.974368
5335   1 37.119056 17.131872 42.829680
5336   1 37.119056 17.131872 45.684992
5337   1 37.119056 17.131872 48.540304
5338   1 37.119056 17.131872 51.395616
5339   1 37.119056 17.131872 54.250928
5340   1 37.119056 19.987184  0.000000
5341   1 37.119056 19.987184  2.855312
5342   1 37.119056 19.987184  5.710624
5343   1 37.119056 19.987184  8.565936
5344   1 37.119056 19.987184 11.421248
5345   1 37.119056 19.987184 14.276560
5346   1 37.119056 19.987184 17.131872
5347   1 37.119056 19.987184 19.987184
5348   1 37.119056 19.987184 22.842496
5349   1 37.119056 19.987184 25.697808
5350   1 37.119056 19.987184 28.553120
5351   1 37.119056 19.987184 31.408432
5352   1 37.119056 19.987184 34.263744
5353   1 37.119056 19.987184 37.119056
5354   1 37.119056 19.987184 39.974368
5355   1 37.119056 19.987184 42.829680
5356   1 37.119056 19.987184 45.684992
5357   1 37.119056 19.987184 48.540304
5358   1 37.119056 19.987184 51.395616
5359   1 37.119056 19.987184 54.250928
5360   1 37.119056 22.842496  0.000000
5361   1 37.119056 22.842496  2.855312
5362   1 37.119056 22.842496  5.710624
5363   1 37.119056 22.842496  8.565936
5364   1 37.119056 22.842496 11.421248
5365   1 37.119056 22.842496 14.276560
5366   1 37.119056 22.842496 17.131872
5367   1 37.119056 22.842496 19.987184
5368   1 37.119056 22.842496 22.842496
5369   1 37.119056 22.842496 25.697808
5370   1 37.119056 22.842496 28.553120
5371   1 37.119056 22.842496 31.408432
5372   1 37.119056 22.842496 34.263744
5373   1 37.119056 22.842496 37.119056
5374   1 37.119056 22.842496 39.974368
5375   1 37.119056 22.842496 42.829680
5376   1 37.119056 22.842496 45.684992
5377   1 37.119056 22.842496 48.540304
5378   1 37.119056 22.842496 51.395616
5379   1 37.119056 22.842496 54.250928
5380   1 37.119056 25.697808  0.000000
5381   1 37.119056 25.697808  2.855312
5382   1 37.119056 25.697808  5.710624
5383   1 37.119056 25.697808  8.565936
5384   1 37.119056 25.697808 11.421248
5385   1 37.119056 25.697808 14.276560
5386   1 37.119056 25.697808 17.131872
5387   1 37.119056 25.697808 19.987184
5388   1 37.119056 25.697808 22.842496
5389   1 37.119056 25.697808 25.697808
5390   1 37.119056 25.697808 28.553120
5391   1 37.119056 25.697808 31.408432
5392   1 37.119056 25.697808 34.263744
5393   1 37.119056 25.697808 37.119056
5394   1 37.119056 25.697808 39.974368
5395   1 37.119056 25.697808 42.829680
5396   1 37.119056 25.697808 45.684992
5397   1 37.119056 25.697808 48.540304
5398   1 37.119056 25.697808 51.395616
5399   1 37.119056 25.697808 54.250928
5400   1 37.119056 28.553120  0.000000
5401   1 37.119056 28.553120  2.855312
5402   1 37.119056 28.553120  5.710624
5403   1 37.119056 28.553120  8.565936
5404   1 37.119056 28.553120 11.421248
5405   1 37.119056 28.553120 14.276560
5406   1 37.119056 28.553120 17.131872
5407   1 37.119056 28.553120 19.987184
5408   1 37.119056 28.553120 22.842496
5409   1 37.119056 28.553120 25.697808
5410   1 37.119056 28.553120 28.553120
5411   1 37.119056 28.553120 31.408432
5412   1 37.119056 28.553120 34.263744
5413   1 37.119056 28.553120 37.119056
5414   1 37.119056 28.553120 39.974368
5415   1 37.119056 28.553120 42.829680
5416   1 37.119056 28.553120 45.684992
5417   1 37.119056 28.553120 48.540304
5418   1 37.119056 28.553120 51.395616
5419   1 37.119056 28.553120 54.250928
5420   1 37.119056 31.408432  0.000000
5421   1 37.119056 31.408432  2.855312
5422   1 37.119056 31.408432  5.710624
5423   1 37.119056 31.408432  8.565936
5424   1 37.119056 31.408432 11.421248
5425   1 37.119056 31.408432 14.276560
5426   1 37.119056 31.408432 17.131872
5427   1 37.119056 31.408432 19.987184
5428   1 37.119056 31.408432 22.842496
5429   1 37.119056 31.408432 25.697808
5430   1 37.119056 31.408432 28.553120
5431   1 37.119056 31.408432 31.408432
5432   1 37.119056 31.408432 34.263744
5433   1 37.119056 31.408432 37.119056
5434   1 37.119056 31.408432 39.974368
5435   1 37.119056 31.408432 42.829680
5436   1 37.119056 31.408432 45.684992
5437   1 37.119056 31.408432 48.540304
5438   1 37.119056 31.408432 51.395616
5439   1 37.119056 31.408432 54.250928
5440   1 37.119056 34.263744  0.000000
5441   1 37.119056 34.263744  2.855312
5442   1 37.119056 34.263744  5.710624
5443   1 37.119056 34.263744  8.565936
5444   1 37.119056 34.263744 11.421248
5445   1 37.119056 34.263744 14.276560
5446   1 37.119056 34.263744 17.131872
5447   1 37.119056 34.263744 19.987184
5448   1 37.119056 34.263744 22.842496
5449   1 37.119056 34.263744 25.697808
5450   1 37.119056 34.263744 28.553120
5451   1 37.119056 34.263744 31.408432
5452   1 37.119056 34.263744 34.263744
5453   1 37.119056 34.263744 37.119056
5454   1 37.119056 34.263744 39.974368
5455   1 37.119056 34.263744 42.829680
5456   1 37.119056 34.263744 45.684992
5457   1 37.119056 34.263744 48.540304
5458   1 37.119056 34.263744 51.395616
5459   1 37.119056 34.263744 54.250928
5460   1 37.119056 37.119056  0.000000
5461   1 37.119056 37.119056  2.855312
5462   1 37.119056 37.119056  5.710624
5463   1 37.119056 37.119056  8.565936
5464   1 37.119056 37.119056 11.421248
5465   1 37.119056 37.119056 14.276560
5466   1 37.119056 37.119056 17.131872
5467   1 37.119056 37.119056 19.987184
5468   1 37.119056 37.119056 22.842496
5469   1 37.119056 37.119056 25.697808
5470   1 37.119056 37.119056 28.553120
5471   1 37.119056 37.119056 31.408432
5472   1 37.119056 37.119056 34.263744
5473   1 37.119056 37.119056 37.119056
5474   1 37.119056 37.119056 39.974368
5475   1 37.119056 37.119056 42.829680
5476   1 37.119056 37.119056 45.684992
5477   1 37.119056 37.119056 48.540304
5478   1 37.119056 37.119056 51.395616
5479   1 37.119056 37.119056 54.250928
5480   1 37.119056 39.974368  0.000000
5481   1 37.119056 39.974368  2.855312
5482   1 37.119056 39.974368  5.710624
5483   1 37.119056 39.974368  8.565936
5484   1 37.119056 39.974368 11.421248
5485   1 37.119056 39.974368 14.276560
5486   1 37.119056 39.974368 17.131872
5487   1 37.119056 39.974368 19.987184
5488   1 37.119056 39.974368 22.842496
5489   1 37.119056 39.974368 25.697808
5490   1 37.119056 39.974368 28.553120
5491   1 37.119056 39.974368 31.408432
5492   1 37.119056 39.974368 34.263744
5493   1 37.119056 39.974368 37.119056
5494   1 37.119056 39.974368 39.974368
5495   1 37.119056 39.974368 42.829680
5496   1 37.119056 39.974368 45.684992
5497   1 37.119056 39.974368 48.540304
5498   1 37.119056 39.974368 51.395616
5499   1 37.119056 39.974368 54.250928
5500   1 37.119056 42.829680  0.000000
5501   1 37.119056 42.829680  2.855312
5502   1 37.119056 42.829680  5.710624
5503   1 37.119056 42.829680  8.565936
5504   1 37.119056 42.829680 11.421248
5505   1 37.119056 42.829680 14.276560
5506   1 37.119056 42.829680 17.131872
5507   1 37.119056 42.829680 19.987184
5508   1 37.119056 42.829680 22.842496
5509   1 37.119056 42.829680 25.697808
5510   1 37.119056 42.829680 28.553120
5511   1 37.119056 42.829680 31.408432
5512   1 37.119056 42.829680 34.263744
5513   1 37.119056 42.829680 37.119056
5514   1 37.119056 42.829680 39.974368
5515   1 37.119056 42.829680 42.829680
5516   1 37.119056 42.829680 45.684992
5517   1 37.119056 42.829680 48.540304
5518   1 37.119056 42.829680 51.395616
5519   1 37.119056 42.829680 54.250928
5520   1 37.119056 45.684992  0.000000
5521   1 37.119056 45.684992  2.855312
5522   1 37.119056 45.684992  5.710624
5523   1 37.119056 45.684992  8.565936
5524   1 37.119056 45.684992 11.421248
5525   1 37.119056 45.684992 14.276560
5526   1 37.119056 45.684992 17.131872
5527   1 37.119056 45.684992 19.987184
5528   1 37.119056 45.684992 22.842496
5529   1 37.119056 45.684992 25.697808
5530   1 37.119056 45.684992 28.553120
5531   1 37.119056 45.684992 31.408432
5532   1 37.119056 45.684992 34.263744
5533   1 37.119056 45.684992 37.119056
5534   1 37.119056 45.684992 39.974368
5535   1 37.119056 45.684992 42.829680
5536   1 37.119056 45.684992 45.684992
5537   1 37.119056 45.684992 48.540304
5538   1 37.119056 45.684992 51.395616
5539   1 37.119056 45.684992 54.250928
5540   1 37.119056 48.540304  0.000000
5541   1 37.119056 48.540304  2.855312
5542   1 37.119056 48.540304  5.710624
5543   1 37.119056 48.540304  8.565936
5544   1 37.119056 48.540304 11.421248
5545   1 37.119056 48.540304 14.276560
5546   1 37.119056 48.540304 17.131872
5547   1 37.119056 48.540304 19.987184
5548   1 37.119056 48.540304 22.842496
5549   1 37.119056 48.540304 25.697808
5550   1 37.119056 48.540304 28.553120
5551   1 37.119056 48.540304 31.408432
5552   1 37.119056 48.540304 34.263744
5553   1 37.119056 48.540304 37.119056
5554   1 37.119056 48.540304 39.974368
5555   1 37.119056 48.540304 42.829680
5556   1 37.119056 48.540304 45.684992
5557   1 37.119056 48.540304 48.540304
5558   1 37.119056 48.540304 51.395616
5559   1 37.119056 48.540304 54.250928
5560   1 37.119056 51.395616  0.000000
5561   1 37.119056 51.395616  2.855312
5562   1 37.119056 51.395616  5.710624
5563   1 37.119056 51.395616  8.565936
5564   1 37.119056 51.395616 11.421248
5565   1 37.119056 51.395616 14.276560
5566   1 37.119056 51.395616 17.131872
5567   1 37.119056 51.395616 19.987184
5568   1 37.119056 51.395616 22.842496
5569   1 37.119056 51.395616 25.697808
5570   1 37.119056 51.395616 28.553120
5571   1 37.119056 51.395616 31.408432
5572   1 37.119056 51.395616 34.263744
5573   1 37.119056 51.395616 37.119056
5574   1 37.119056 51.395616 39.974368
5575   1 37.119056 51.395616 42.829680
5576   1 37.119056 51.395616 45.684992
5577   1 37.119056 51.395616 48.540304
5578   1 37.119056 51.395616 51.395616
5579   1 37.119056 51.395616 54.250928
5580   1 37.119056 54.250928  0.000000
5581   1 37.119056 54.250928  2.855312
5582   1 37.119056 54.250928  5.710624
5583   1 37.119056 54.250928  8.565936
5584   1 37.119056 54.250928 11.421248
5585   1 37.119056 54.250928 14.276560
5586   1 37.119056 54.250928 17.131872
5587   1 37.119056 54.250928 19.987184
5588   1 37.119056 54.250928 22.842496
5589   1 37.119056 54.250928 25.697808
5590   1 37.119056 54.250928 28.553120
5591   1 37.119056 54.250928 31.408432
5592   1 37.119056 54.250928 34.263744
5593   1 37.119056 54.250928 37.119056
5594   1 37.119056 54.250928 39.974368
5595   1 37.119056 54.250928 42.829680
5596   1 37.119056 54.250928 45.684992
5597   1 37.119056 54.250928 48.540304
5598   1 37.119056 54.250928 51.395616
5599   1 37.119056 54.250928 54.250928
5600   1 39.974368  0.000000  0.000000
5601   1 39.974368  0.000000  2.855312
5602   1 39.974368  0.000000  5.710624
5603   1 39.974368  0.000000  8.565936
5604   1 39.974368  0.000000 11.421248
5605   1 39.974368  0.000000 14.276560
5606   1 39.974368  0.000000 17.131872
5607   1 39.974368  0.000000 19.987184
5608   1 39.974368  0.000000 22.842496
5609   1 39.974368  0.000000 25.697808
5610   1 39.974368  0.000000 28.553120
5611   1 39.974368  0.000000 31.408432
5612   1 39.974368  0.000000 34.263744
5613   1 39.974368  0.000000 37.119056
5614   1 39.974368  0.000000 39.974368
5615   1 39.974368  0.000000 42.829680
5616   1 39.974368  0.000000 45.684992
5617   1 39.974368  0.000000 48.540304
5618   1 39.974368  0.000000 51.395616
5619   1 39.974368  0.000000 54.250928
5620   1 39.974368  2.855312  0.000000
5621   1 39.974368  2.855312  2.855312
5622   1 39.974368  2.855312  5.710624
5623   1 39.974368  2.855312  8.565936
5624   1 39.974368  2.855312 11.421248
5625   1 39.974368  2.855312 14.276560
5626   1 39.974368  2.855312 17.131872
5627   1 39.974368  2.855312 19.987184
5628   1 39.974368  2.855312 22.842496
5629   1 39.974368  2.855312 25.697808
5630   1 39.974368  2.855312 28.553120
5631   1 39.974368  2.855312 31.408432
5632   1 39.974368  2.855312 34.263744
5633   1 39.974368  2.855312 37.119056
5634   1 39.974368  2.855312 39.974368
5635   1 39.974368  2.855312 42.829680
5636   1 39.974368  2.855312 45.684992
5637   1 39.974368  2.855312 48.540304
5638   1 39.974368  2.855312 51.395616
5639   1 39.974368  2.855312 54.250928
5640   1 39.974368  5.710624  0.000000
5641   1 39.974368  5.710624  2.855312
5642   1 39.974368  5.710624  5.710624
5643   1 39.974368  5.710624  8.565936
5644   1 39.974368  5.710624 11.421248
5645   1 39.974368  5.710624 14.276560
5646   1 39.974368  5.710624 17.131872
5647   1 39.974368  5.710624 19.987184
5648   1 39.974368  5.710624 22.842496
5649   1 39.974368  5.710624 25.697808
5650   1 39.974368  5.710624 28.553120
5651   1 39.974368  5.710624 31.408432
5652   1 39.974368  5.710624 34.263744
5653   1 39.974368  5.710624 37.119056
5654   1 39.974368  5.710624 39.974368
5655   1 39.974368  5.710624 42.829680
5656   1 39.974368  5.710624 45.684992
5657   1 39.974368  5.710624 48.540304
5658   1 39.974368  5.710624 51.395616
5659   1 39.974368  5.710624 54.250928
5660   1 39.974368  8.565936  0.000000
5661   1 39.974368  8.565936  2.855312
5662   1 39.974368  8.565936  5.710624
5663   1 39.974368  8.565936  8.565936
5664   1 39.974368  8.565936 11.421248
5665   1 39.974368  8.565936 14.276560
5666   1 39.974368  8.565936 17.131872
5667   1 39.974368  8.565936 19.987184
5668   1 39.974368  8.565936 22.842496
5669   1 39.974368  8.565936 25.697808
5670   1 39.974368  8.565936 28.553120
5671   1 39.974368  8.565936 31.408432
5672   1 39.974368  8.565936 34.263744
5673   1 39.974368  8.565936 37.119056
5674   1 39.974368  8.565936 39.974368
5675   1 39.974368  8.565936 42.829680
5676   1 39.974368  8.565936 45.684992
5677   1 39.974368  8.565936 48.540304
5678   1 39.974368  8.565936 51.395616
5679   1 39.974368  8.565936 54.250928
5680   1 39.974368 11.421248  0.000000
5681   1 39.974368 11.421248  2.855312
5682   1 39.974368 11.421248  5.710624
5683   1 39.974368 11.421248  8.565936
5684   1 39.974368 11.421248 11.421248
5685   1 39.974368 11.421248 14.276560
5686   1 39.974368 11.421248 17.131872
5687   1 39.974368 11.421248 19.987184
5688   1 39.974368 11.421248 22.842496
5689   1 39.974368 11.421248 25.697808
5690   1 39.974368 11.421248 28.553120
5691   1 39.974368 11.421248 31.408432
5692   1 39.974368 11.421248 34.263744
5693   1 39.974368 11.421248 37.119056
5694   1 39.974368 11.421248 39.974368
5695   1 39.974368 11.421248 42.829680
5696   1 39.974368 11.421248 45.684992
5697   1 39.974368 11.421248 48.540304
5698   1 39.974368 11.421248 51.395616
5699   1 39.974368 11.421248 54.250928
5700   1 39.974368 14.276560  0.000000
5701   1 39.974368 14.276560  2.855312
5702   1 39.974368 14.276560  5.710624
5703   1 39.974368 14.276560  8.565936
5704   1 39.974368 14.276560 11.421248
5705   1 39.974368 14.276560 14.276560
5706   1 39.974368 14.276560 17.131872
5707   1 39.974368 14.276560 19.987184
5708   1 39.974368 14.276560 22.842496
5709   1 39.974368 14.276560 25.697808
5710   1 39.974368 14.276560 28.553120
5711   1 39.974368 14.276560 31.408432
5712   1 39.974368 14.276560 34.263744
5713   1 39.974368 14.276560 37.119056
5714   1 39.974368 14.276560 39.974368
5715   1 39.974368 14.276560 42.829680
5716   1 39.974368 14.276560 45.684992
5717   1 39.974368 14.276560 48.540304
5718   1 39.974368 14.276560 51.395616
5719   1 39.974368 14.276560 54.250928
5720   1 39.974368 17.131872  0.000000
5721   1 39.974368 17.131872  2.855312
5722   1 39.974368 17.131872  5.710624
5723   1 39.974368 17.131872  8.565936
5724   1 39.974368 17.131872 11.421248
5725   1 39.974368 17.131872 14.276560
5726   1 39.974368 17.131872 17.131872
5727   1 39.974368 17.131872 19.987184
5728   1 39.974368 17.131872 22.842496
5729   1 39.974368 17.131872 25.697808
5730   1 39.974368 17.131872 28.553120
5731   1 39.974368 17.131872 31.408432
5732   1 39.974368 17.131872 34.263744
5733   1 39.974368 17.131872 37.119056
5734   1 39.974368 17.131872 39.974368
5735   1 39.974368 17.131872 42.829680
5736   1 39.974368 17.131872 45.684992
5737   1 39.974368 17.131872 48.540304
5738   1 39.974368 17.131872 51.395616
5739   1 39.974368 17.131872 54.250928
5740   1 39.974368 19.987184  0.000000
5741   1 39.974368 19.987184  2.855312
5742   1 39.974368 19.987184  5.710624
5743   1 39.974368 19.987184  8.565936
5744   1 39.974368 19.987184 11.421248
5745   1 39.974368 19.987184 14.276560
5746   1 39.974368 19.987184 17.131872
5747   1 39.974368 19.987184 19.987184
5748   1 39.974368 19.987184 22.842496
5749   1 39.974368 19.987184 25.697808
5750   1 39.974368 19.987184 28.553120
5751   1 39.974368 19.987184 31.408432
5752   1 39.974368 19.987184 34.263744
5753   1 39.974368 19.987184 37.119056
5754   1 39.974368 19.987184 39.974368
5755   1 39.974368 19.987184 42.829680
5756   1 39.974368 19.987184 45.684992
5757   1 39.974368 19.987184 48.540304
5758   1 39.974368 19.987184 51.395616
5759   1 39.974368 19.987184 54.250928
5760   1 39.974368 22.842496  0.000000
5761   1 39.974368 22.842496  2.855312
5762   1 39.974368 22.842496  5.710624
5763   1 39.974368 22.842496  8.565936
5764   1 39.974368 22.842496 11.421248
5765   1 39.974368 22.842496 14.276560
5766   1 39.974368 22.842496 17.131872
5767   1 39.974368 22.842496 19.987184
5768   1 39.974368 22.842496 22.842496
5769   1 39.974368 22.842496 25.697808
5770   1 39.974368 22.842496 28.553120
5771   1 39.974368 22.842496 31.408432
5772   1 39.974368 22.842496 34.263744
5773   1 39.974368 22.842496 37.119056
5774   1 39.974368 22.842496 39.974368
5775   1 39.974368 22.842496 42.829680
5776   1 39.974368 22.842496 45.684992
5777   1 39.974368 22.842496 48.540304
5778   1 39.974368 22.842496 51.395616
5779   1 39.974368 22.842496 54.250928
5780   1 39.974368 25.697808  0.000000
5781   1 39.974368 25.697808  2.855312
5782   1 39.974368 25.697808  5.710624
5783   1 39.974368 25.697808  8.565936
5784   1 39.974368 25.697808 11.421248
5785   1 39.974368 25.697808 14.276560
5786   1 39.974368 25.697808 17.131872
5787   1 39.974368 25.697808 19.987184
5788   1 39.974368 25.697808 22.842496
5789   1 39.974368 25.697808 25.697808
5790   1 39.974368 25.697808 28.553120
5791   1 39.974368 25.697808 31.408432
5792   1 39.974368 25.697808 34.263744
5793   1 39.974368 25.697808 37.119056
5794   1 39.974368 25.697808 39.974368
5795   1 39.974368 25.697808 42.829680
5796   1 39.974368 25.697808 45.684992
5797   1 39.974368 25.697808 48.540304
5798   1 39.974368 25.697808 51.395616
5799   1 39.974368 25.697808 54.250928
5800   1 39.974368 28.553120  0.000000
5801   1 39.974368 28.553120  2.855312
5802   1 39.974368 28.553120  5.710624
5803   1 39.974368 28.553120  8.565936
5804   1 39.974368 28.553120 11.421248
5805   1 39.974368 28.553120 14.276560
5806   1 39.974368 28.553120 17.131872
5807   1 39.974368 28.553120 19.987184
5808   1 39.974368 28.553120 22.842496
5809   1 39.974368 28.553120 25.697808
5810   1 39.974368 28.553120 28.553120
5811   1 39.974368 28.553120 31.408432
5812   1 39.974368 28.553120 34.263744
5813   1 39.974368 28.553120 37.119056
5814   1 39.974368 28.553120 39.974368
5815   1 39.974368 28.553120 42.829680
5816   1 39.974368 28.553120 45.684992
5817   1 39.974368 28.553120 48.540304
5818   1 39.974368 28.553120 51.395616
5819   1 39.974368 28.553120 54.250928
5820   1 39.974368 31.408432  0.000000
5821   1 39.974368 31.408432  2.855312
5822   1 39.974368 31.408432  5.710624
5823   1 39.974368 31.408432  8.565936
5824   1 39.974368 31.408432 11.421248
5825   1 39.974368 31.408432 14.276560
5826   1 39.974368 31.408432 17.131872
5827   1 39.974368 31.408432 19.987184
5828   1 39.974368 31.408432 22.842496
5829   1 39.974368 31.408432 25.697808
5830   1 39.974368 31.408432 28.553120
5831   1 39.974368 31.408432 31.408432
5832   1 39.974368 31.408432 34.263744
5833   1 39.974368 31.408432 37.119056
5834   1 39.974368 31.408432 39.974368
5835   1 39.974368 31.408432 42.829680
5836   1 39.974368 31.408432 45.684992
5837   1 39.974368 31.408432 48.540304
5838   1 39.974368 31.408432 51.395616
5839   1 39.974368 31.408432 54.250928
5840   1 39.974368 34.263744  0.000000
5841   1 39.974368 34.263744  2.855312
5842   1 39.974368 34.263744  5.710624
5843   1 39.974368 34.263744  8.565936
5844   1 39.974368 34.263744 11.421248
5845   1 39.974368 34.263744 14.276560
5846   1 39.974368 34.263744 17.131872
5847   1 39.974368 34.263744 19.987184
5848   1 39.974368 34.263744 22.842496
5849   1 39.974368 34.263744 25.697808
5850   1 39.974368 34.263744 28.553120
5851   1 39.974368 34.263744 31.408432
5852   1 39.974368 34.263744 34.263744
5853   1 39.974368 34.263744 37.119056
5854   1 39.974368 34.263744 39.974368
5855   1 39.974368 34.263744 42.829680
5856   1 39.974368 34.263744 45.684992
5857   1 39.974368 34.263744 48.540304
5858   1 39.974368 34.263744 51.395616
5859   1 39.974368 34.263744 54.250928
5860   1 39.974368 37.119056  0.000000
5861   1 39.974368 37.119056  2.855312
5862   1 39.974368 37.119056  5.710624
5863   1 39.974368 37.119056  8.565936
5864   1 39.974368 37.119056 11.421248
5865   1 39.974368 37.119056 14.276560
5866   1 39.974368 37.119056 17.131872
5867   1 39.974368 37.119056 19.987184
5868   1 39.974368 37.119056 22.842496
5869   1 39.974368 37.119056 25.697808
5870   1 39.974368 37.119056 28.553120
5871   1 39.974368 37.119056 31.408432
5872   1 39.974368 37.119056 34.263744
5873   1 39.974368 37.119056 37.119056
5874   1 39.974368 37.119056 39.974368
5875   1 39.974368 37.119056 42.829680
5876   1 39.974368 37.119056 45.684992
5877   1 39.974368 37.119056 48.540304
5878   1 39.974368 37.119056 51.395616
5879   1 39.974368 37.119056 54.250928
5880   1 39.974368 39.974368  0.000000
5881   1 39.974368 39.974368  2.855312
5882   1 39.974368 39.974368  5.710624
5883   1 39.974368 39.974368  8.565936
5884   1 39.974368 39.974368 11.421248
5885   1 39.974368 39.974368 14.276560
5886   1 39.974368 39.974368 17.131872
5887   1 39.974368 39.974368 19.987184
5888   1 39.974368 39.974368 22.842496
5889   1 39.974368 39.974368 25.697808
5890   1 39.974368 39.974368 28.553120
5891   1 39.974368 39.974368 31.408432
5892   1 39.974368 39.974368 34.263744
5893   1 39.974368 39.974368 37.119056
5894   1 39.974368 39.974368 39.974368
5895   1 39.974368 39.974368 42.829680
5896   1 39.974368 39.974368 45.684992
5897   1 39.974368 39.974368 48.540304
5898   1 39.974368 39.974368 51.395616
5899   1 39.974368 39.974368 54.250928
5900   1 39.974368 42.829680  0.000000
5901   1 39.974368 42.829680  2.855312
5902   1 39.974368 42.829680  5.710624
5903   1 39.974368 42.829680  8.565936
5904   1 39.974368 42.829680 11.421248
5905   1 39.974368 42.829680 14.276560
5906   1 39.974368 42.829680 17.131872
5907   1 39.974368 42.829680 19.987184
5908   1 39.974368 42.829680 22.842496
5909   1 39.974368 42.829680 25.697808
5910   1 39.974368 42.829680 28.553120
5911   1 39.974368 42.829680 31.408432
5912   1 39.974368 42.829680 34.263744
5913   1 39.974368 42.829680 37.119056
5914   1 39.974368 42.829680 39.974368
5915   1 39.974368 42.829680 42.829680
5916   1 39.974368 42.829680 45.684992
5917   1 39.974368 42.829680 48.540304
5918   1 39.974368 42.829680 51.395616
5919   1 39.974368 42.829680 54.250928
5920   1 39.974368 45.684992  0.000000
5921   1 39.974368 45.684992  2.855312
5922   1 39.974368 45.684992  5.710624
5923   1 39.974368 45.684992  8.565936
5924   1 39.974368 45.684992 11.421248
5925   1 39.974368 45.684992 14.276560
5926   1 39.974368 45.684992 17.131872
5927   1 39.974368 45.684992 19.987184
5928   1 39.974368 45.684992 22.842496
5929   1 39.974368 45.684992 25.697808
5930   1 39.974368 45.684992 28.553120
5931   1 39.974368 45.684992 31.408432
5932   1 39.974368 45.684992 34.263744
5933   1 39.974368 45.684992 37.119056
5934   1 39.974368 45.684992 39.974368
5935   1 39.974368 45.684992 42.829680
5936   1 39.974368 45.684992 45.684992
5937   1 39.974368 45.684992 48.540304
5938   1 39.974368 45.684992 51.395616
5939   1 39.974368 45.684992 54.250928
5940   1 39.974368 48.540304  0.000000
5941   1 39.974368 48.540304  2.855312
5942   1 39.974368 48.540304  5.710624
5943   1 39.974368 48.540304  8.565936
5944   1 39.974368 48.540304 11.421248
5945   1 39.974368 48.540304 14.276560
5946   1 39.974368 48.540304 17.131872
5947   1 39.974368 48.540304 19.987184
5948   1 39.974368 48.540304 22.842496
5949   1 39.974368 48.540304 25.697808
5950   1 39.974368 48.540304 28.553120
5951   1 39.974368 48.540304 31.408432
5952   1 39.974368 48.540304 34.263744
5953   1 39.974368 48.540304 37.119056
5954   1 39.974368 48.540304 39.974368
5955   1 39.974368 48.540304 42.829680
5956   1 39.974368 48.540304 45.684992
5957   1 39.974368 48.540304 48.540304
5958   1 39.974368 48.540304 51.395616
5959   1 39.974368 48.540304 54.250928
5960   1 39.974368 51.395616  0.000000
5961   1 39.974368 51.395616  2.855312
5962   1 39.974368 51.395616  5.710624
5963   1 39.974368 51.395616  8.565936
5964   1 39.974368 51.395616 11.421248
5965   1 39.974368 51.395616 14.276560
5966   1 39.974368 51.395616 17.131872
5967   1 39.974368 51.395616 19.987184
5968   1 39.974368 51.395616 22.842496
5969   1 39.974368 51.395616 25.697808
5970   1 39.974368 51.395616 28.553120
5971   1 39.974368 51.395616 31.408432
5972   1 39.974368 51.395616 34.263744
5973   1 39.974368 51.395616 37.119056
5974   1 39.974368 51.395616 39.974368
5975   1 39.974368 51.395616 42.829680
5976   1 39.974368 51.395616 45.684992
5977   1 39.974368 51.395616 48.540304
5978   1 39.974368 51.395616 51.395616
5979   1 39.974368 51.395616 54.250928
5980   1 39.974368 54.250928  0.000000
5981   1 39.974368 54.250928  2.855312
5982   1 39.974368 54.250928  5.710624
5983   1 39.974368 54.250928  8.565936
5984   1 39.974368 54.250928 11.421248
5985   1 39.974368 54.250928 14.276560
5986   1 39.974368 54.250928 17.131872
5987   1 39.974368 54.250928 19.987184
5988   1 39.974368 54.250928 22.842496
5989   1 39.974368 54.250928 25.697808
5990   1 39.974368 54.250928 28.553120
5991   1 39.974368 54.250928 31.408432
5992   1 39.974368 54.250928 34.263744
5993   1 39.974368 54.250928 37.119056
5994   1 39.974368 54.250928 39.974368
5995   1 39.974368 54.250928 42.829680
5996   1 39.974368 54.250928 45.684992
5997   1 39.974368 54.250928 48.540304
5998   1 39.974368 54.250928 51.395616
5999   1 39.974368 54.250928 54.250928
6000   1 42.829680  0.000000  0.000000
6001   1 42.829680  0.000000  2.855312
6002   1 42.829680  0.000000  5.710624
6003   1 42.829680  0.000000  8.565936
6004   1 42.829680  0.000000 11.421248
6005   1 42.829680  0.000000 14.276560
6006   1 42.829680  0.000000 17.131872
6007   1 42.829680  0.000000 19.987184
6008   1 42.829680  0.000000 22.842496
6009   1 42.829680  0.000000 25.697808
6010   1 42.829680  0.000000 28.553120
6011   1 42.829680  0.000000 31.408432
6012   1 42.829680  0.000000 34.263744
6013   1 42.829680  0.000000 37.119056
6014   1 42.829680  0.000000 39.974368
6015   1 42.829680  0.000000 42.829680
6016   1 42.829680  0.000000 45.684992
6017   1 42.829680  0.000000 48.540304
6018   1 42.829680  0.000000 51.395616
6019   1 42.829680  0.000000 54.250928
6020   1 42.829680  2.855312  0.000000
6021   1 42.829680  2.855312  2.855312
6022   1 42.829680  2.855312  5.710624
6023   1 42.829680  2.855312  8.565936
6024   1 42.829680  2.855312 11.421248
6025   1 42.829680  2.855312 14.276560
6026   1 42.829680  2.855312 17.131872
6027   1 42.829680  2.855312 19.987184
6028   1 42.829680  2.855312 22.842496
6029   1 42.829680  2.855312 25.697808
6030   1 42.829680  2.855312 28.553120
6031   1 42.829680  2.855312 31.408432
6032   1 42.829680  2.855312 34.263744
6033   1 42.829680  2.855312 37.119056
6034   1 42.829680  2.855312 39.974368
6035   1 42.829680  2.855312 42.829680
6036   1 42.829680  2.855312 45.684992
6037   1 42.829680  2.855312 48.540304
6038   1 42.829680  2.855312 51.395616
6039   1 42.829680  2.855312 54.250928
6040   1 42.829680  5.710624  0.000000
6041   1 42.829680  5.710624  2.855312
6042   1 42.829680  5.710624  5.710624
6043   1 42.829680  5.710624  8.565936
6044   1 42.829680  5.710624 11.421248
6045   1 42.829680  5.710624 14.276560
6046   1 42.829680  5.710624 17.131872
6047   1 42.829680  5.710624 19.987184
6048   1 42.829680  5.710624 22.842496
6049   1 42.829680  5.710624 25.697808
6050   1 42.829680  5.710624 28.553120
6051   1 42.829680  5.710624 31.408432
6052   1 42.829680  5.710624 34.263744
6053   1 42.829680  5.710624 37.119056
6054   1 42.829680  5.710624 39.974368
6055   1 42.829680  5.710624 42.829680
6056   1 42.829680  5.710624 45.684992
6057   1 42.829680  5.710624 48.540304
6058   1 42.829680  5.710624 51.395616
6059   1 42.829680  5.710624 54.250928
6060   1 42.829680  8.565936  0.000000
6061   1 42.829680  8.565936  2.855312
6062   1 42.829680  8.565936  5.710624
6063   1 42.829680  8.565936  8.565936
6064   1 42.829680  8.565936 11.421248
6065   1 42.829680  8.565936 14.276560
6066   1 42.829680  8.565936 17.131872
6067   1 42.829680  8.565936 19.987184
6068   1 42.829680  8.565936 22.842496
6069   1 42.829680  8.565936 25.697808
6070   1 42.829680  8.565936 28.553120
6071   1 42.829680  8.565936 31.408432
6072   1 42.829680  8.565936 34.263744
6073   1 42.829680  8.565936 37.119056
6074   1 42.829680  8.565936 39.974368
6075   1 42.829680  8.565936 42.829680
6076   1 42.829680  8.565936 45.684992
6077   1 42.829680  8.565936 48.540304
6078   1 42.829680  8.565936 51.395616
6079   1 42.829680  8.565936 54.250928
6080   1 42.829680 11.421248  0.000000
6081   1 42.829680 11.421248  2.855312
6082   1 42.829680 11.421248  5.710624
6083   1 42.829680 11.421248  8.565936
6084   1 42.829680 11.421248 11.421248
6085   1 42.829680 11.421248 14.276560
6086   1 42.829680 11.421248 17.131872
6087   1 42.829680 11.421248 19.987184
6088   1 42.829680 11.421248 22.842496
6089   1 42.829680 11.421248 25.697808
6090   1 42.829680 11.421248 28.553120
6091   1 42.829680 11.421248 31.408432
6092   1 42.829680 11.421248 34.263744
6093   1 42.829680 11.421248 37.119056
6094   1 42.829680 11.421248 39.974368
6095   1 42.829680 11.421248 42.829680
6096   1 42.829680 11.421248 45.684992
6097   1 42.829680 11.421248 48.540304
6098   1 42.829680 11.421248 51.395616
6099   1 42.829680 11.421248 54.250928
6100   1 42.829680 14.276560  0.000000
6101   1 42.829680 14.276560  2.855312
6102   1 42.829680 14.276560  5.710624
6103   1 42.829680 14.276560  8.565936
6104   1 42.829680 14.276560 11.421248
6105   1 42.829680 14.276560 14.276560
6106   1 42.829680 14.276560 17.131872
6107   1 42.829680 14.276560 19.987184
6108   1 42.829680 14.276560 22.842496
6109   1 42.829680 14.276560 25.697808
6110   1 42.829680 14.276560 28.553120
6111   1 42.829680 14.276560 31.408432
6112   1 42.829680 14.276560 34.263744
6113   1 42.829680 14.276560 37.119056
6114   1 42.829680 14.276560 39.974368
6115   1 42.829680 14.276560 42.829680
6116   1 42.829680 14.276560 45.684992
6117   1 42.829680 14.276560 48.540304
6118   1 42.829680 14.276560 51.395616
6119   1 42.829680 14.276560 54.250928
6120   1 42.829680 17.131872  0.000000
6121   1 42.829680 17.131872  2.855312
6122   1 42.829680 17.131872  5.710624
6123   1 42.829680 17.131872  8.565936
6124   1 42.829680 17.131872 11.421248
6125   1 42.829680 17.131872 14.276560
6126   1 42.829680 17.131872 17.131872
6127   1 42.829680 17.131872 19.987184
6128   1 42.829680 17.131872 22.842496
6129   1 42.829680 17.131872 25.697808
6130   1 42.829680 17.131872 28.553120
6131   1 42.829680 17.131872 31.408432
6132   1 42.829680 17.131872 34.263744
6133   1 42.829680 17.131872 37.119056
6134   1 42.829680 17.131872 39.974368
6135   1 42.829680 17.131872 42.829680
6136   1 42.829680 17.131872 45.684992
6137   1 42.829680 17.131872 48.540304
6138   1 42.829680 17.131872 51.395616
6139   1 42.829680 17.131872 54.250928
6140   1 42.829680 19.987184  0.000000
6141   1 42.829680 19.987184  2.855312
6142   1 42.829680 19.987184  5.710624
6143   1 42.829680 19.987184  8.565936
6144   1 42.829680 19.987184 11.421248
6145   1 42.829680 19.987184 14.276560
6146   1 42.829680 19.987184 17.131872
6147   1 42.829680 19.987184 19.987184
6148   1 42.829680 19.987184 22.842496
6149   1 42.829680 19.987184 25.697808
6150   1 42.829680 19.987184 28.553120
6151   1 42.829680 19.987184 31.408432
6152   1 42.829680 19.987184 34.263744
6153   1 42.829680 19.987184 37.119056
6154   1 42.829680 19.987184 39.974368
6155   1 42.829680 19.987184 42.829680
6156   1 42.829680 19.987184 45.684992
6157   1 42.829680 19.987184 48.540304
6158   1 42.829680 19.987184 51.395616
6159   1 42.829680 19.987184 54.250928
6160   1 42.829680 22.842496  0.000000
6161   1 42.829680 22.842496  2.855312
6162   1 42.829680 22.842496  5.710624
6163   1 42.829680 22.842496  8.565936
6164   1 42.829680 22.842496 11.421248
6165   1 42.829680 22.842496 14.276560
6166   1 42.829680 22.842496 17.131872
6167   1 42.829680 22.842496 19.987184
6168   1 42.829680 22.842496 22.842496
6169   1 42.829680 22.842496 25.697808
6170   1 42.829680 22.842496 28.553120
6171   1 42.829680 22.842496 31.408432
6172   1 42.829680 22.842496 34.263744
6173   1 42.829680 22.842496 37.119056
6174   1 42.829680 22.842496 39.974368
6175   1 42.829680 22.842496 42.829680
6176   1 42.829680 22.842496 45.684992
6177   1 42.829680 22.842496 48.540304
6178   1 42.829680 22.842496 51.395616
6179   1 42.829680 22.842496 54.250928
6180   1 42.829680 25.697808  0.000000
6181   1 42.829680 25.697808  2.855312
6182   1 42.829680 25.697808  5.710624
6183   1 42.829680 25.697808  8.565936
6184   1 42.829680 25.697808 11.421248
6185   1 42.829680 25.697808 14.276560
6186   1 42.829680 25.697808 17.131872
6187   1 42.829680 25.697808 19.987184
6188   1 42.829680 25.697808 22.842496
6189   1 42.829680 25.697808 25.697808
6190   1 42.829680 25.697808 28.553120
6191   1 42.829680 25.697808 31.408432
6192   1 42.829680 25.697808 34.263744
6193   1 42.829680 25.697808 37.119056
6194   1 42.829680 25.697808 39.974368
6195   1 42.829680 25.697808 42.829680
6196   1 42.829680 25.697808 45.684992
6197   1 42.829680 25.697808 48.540304
6198   1 42.829680 25.697808 51.395616
6199   1 42.829680 25.697808 54.250928
6200   1 42.829680 28.553120  0.000000
6201   1 42.829680 28.553120  2.855312
6202   1 42.829680 28.553120  5.710624
6203   1 42.829680 28.553120  8.565936
6204   1 42.829680 28.553120 11.421248
6205   1 42.829680 28.553120 14.276560
6206   1 42.829680 28.553120 17.131872
6207   1 42.829680 28.553120 19.987184
6208   1 42.829680 28.553120 22.842496
6209   1 42.829680 28.553120 25.697808
6210   1 42.829680 28.553120 28.553120
6211   1 42.829680 28.553120 31.408432
6212   1 42.829680 28.553120 34.263744
6213   1 42.829680 28.553120 37.119056
6214   1 42.829680 28.553120 39.974368
6215   1 42.829680 28.553120 42.829680
6216   1 42.829680 28.553120 45.684992
6217   1 42.829680 28.553120 48.540304
6218   1 42.829680 28.553120 51.395616
6219   1 42.829680 28.553120 54.250928
6220   1 42.829680 31.408432  0.000000
6221   1 42.829680 31.408432  2.855312
6222   1 42.829680 31.408432  5.710624
6223   1 42.829680 31.408432  8.565936
6224   1 42.829680 31.408432 11.421248
6225   1 42.829680 31.408432 14.276560
6226   1 42.829680 31.408432 17.131872
6227   1 42.829680 31.408432 19.987184
6228   1 42.829680 31.408432 22.842496
6229   1 42.829680 31.408432 25.697808
6230   1 42.829680 31.408432 28.553120
6231   1 42.829680 31.408432 31.408432
6232   1 42.829680 31.408432 34.263744
6233   1 42.829680 31.408432 37.119056
6234   1 42.829680 31.408432 39.974368
6235   1 42.829680 31.408432 42.829680
6236   1 42.829680 31.408432 45.684992
6237   1 42.829680 31.408432 48.540304
6238   1 42.829680 31.408432 51.395616
6239   1 42.829680 31.408432 54.250928
6240   1 42.829680 34.263744  0.000000
6241   1 42.829680 34.263744  2.855312
6242   1 42.829680 34.263744  5.710624
6243   1 42.829680 34.263744  8.565936
6244   1 42.829680 34.263744 11.421248
6245   1 42.829680 34.263744 14.276560
6246   1 42.829680 34.263744 17.131872
6247   1 42.829680 34.263744 19.987184
6248   1 42.829680 34.263744 22.842496
6249   1 42.829680 34.263744 25.697808
6250   1 42.829680 34.263744 28.553120
6251   1 42.829680 34.263744 31.408432
6252   1 42.829680 34.263744 34.263744
6253   1 42.829680 34.263744 37.119056
6254   1 42.829680 34.263744 39.974368
6255   1 42.829680 34.263744 42.829680
6256   1 42.829680 34.263744 45.684992
6257   1 42.829680 34.263744 48.540304
6258   1 42.829680 34.263744 51.395616
6259   1 42.829680 34.263744 54.250928
6260   1 42.829680 37.119056  0.000000
6261   1 42.829680 37.119056  2.855312
6262   1 42.829680 37.119056  5.710624
6263   1 42.829680 37.119056  8.565936
6264   1 42.829680 37.119056 11.421248
6265   1 42.829680 37.119056 14.276560
6266   1 42.829680 37.119056 17.131872
6267   1 42.829680 37.119056 19.987184
6268   1 42.829680 37.119056 22.842496
6269   1 42.829680 37.119056 25.697808
6270   1 42.829680 37.119056 28.553120
6271   1 42.829680 37.119056 31.408432
6272   1 42.829680 37.119056 34.263744
6273   1 42.829680 37.119056 37.119056
6274   1 42.829680 37.119056 39.974368
6275   1 42.829680 37.119056 42.829680
6276   1 42.829680 37.119056 45.684992
6277   1 42.829680 37.119056 48.540304
6278   1 42.829680 37.119056 51.395616
6279   1 42.829680 37.119056 54.250928
6280   1 42.829680 39.974368  0.000000
6281   1 42.829680 39.974368  2.855312
6282   1 42.829680 39.974368  5.710624
6283   1 42.829680 39.974368  8.565936
6284   1 42.829680 39.974368 11.421248
6285   1 42.829680 39.974368 14.276560
6286   1 42.829680 39.974368 17.131872
6287   1 42.829680 39.974368 19.987184
6288   1 42.829680 39.974368 22.842496
6289   1 42.829680 39.974368 25.697808
6290   1 42.829680 39.974368 28.553120
6291   1 42.829680 39.974368 31.408432
6292   1 42.829680 39.974368 34.263744
6293   1 42.829680 39.974368 37.119056
6294   1 42.829680 39.974368 39.974368
6295   1 42.829680 39.974368 42.829680
6296   1 42.829680 39.974368 45.684992
6297   1 42.829680 39.974368 48.540304
6298   1 42.829680 39.974368 51.395616
6299   1 42.829680 39.974368 54.250928
6300   1 42.829680 42.829680  0.000000
6301   1 42.829680 42.829680  2.855312
6302   1 42.829680 42.829680  5.710624
6303   1 42.829680 42.829680  8.565936
6304   1 42.829680 42.829680 11.421248
6305   1 42.829680 42.829680 14.276560
6306   1 42.829680 42.829680 17.131872
6307   1 42.829680 42.829680 19.987184
6308   1 42.829680 42.829680 22.842496
6309   1 42.829680 42.829680 25.697808
6310   1 42.829680 42.829680 28.553120
6311   1 42.829680 42.829680 31.408432
6312   1 42.829680 42.829680 34.263744
6313   1 42.829680 42.829680 37.119056
6314   1 42.829680 42.829680 39.974368
6315   1 42.829680 42.829680 42.829680
6316   1 42.829680 42.829680 45.684992
6317   1 42.829680 42.829680 48.540304
6318   1 42.829680 42.829680 51.395616
6319   1 42.829680 42.829680 54.250928
6320   1 42.829680 45.684992  0.000000
6321   1 42.829680 45.684992  2.855312
6322   1 42.829680 45.684992  5.710624
6323   1 42.829680 45.684992  8.565936
6324   1 42.829680 45.684992 11.421248
6325   1 42.829680 45.684992 14.276560
6326   1 42.829680 45.684992 17.131872
6327   1 42.829680 45.684992 19.987184
6328   1 42.829680 45.684992 22.842496
6329   1 42.829680 45.684992 25.697808
6330   1 42.829680 45.684992 28.553120
6331   1 42.829680 45.684992 31.408432
6332   1 42.829680 45.684992 34.263744
6333   1 42.829680 45.684992 37.119056
6334   1 42.829680 45.684992 39.974368
6335   1 42.829680 45.684992 42.829680
6336   1 42.829680 45.684992 45.684992
6337   1 42.829680 45.684992 48.540304
6338   1 42.829680 45.684992 51.395616
6339   1 42.829680 45.684992 54.250928
6340   1 42.829680 48.540304  0.000000
6341   1 42.829680 48.540304  2.855312
6342   1 42.829680 48.540304  5.710624
6343   1 42.829680 48.540304  8.565936
6344   1 42.829680 48.540304 11.421248
6345   1 42.829680 48.540304 14.276560
6346   1 42.829680 48.540304 17.131872
6347   1 42.829680 48.540304 19.987184
6348   1 42.829680 48.540304 22.842496
6349   1 42.829680 48.540304 25.697808
6350   1 42.829680 48.540304 28.553120
6351   1 42.829680 48.540304 31.408432
6352   1 42.829680 48.540304 34.263744
6353   1 42.829680 48.540304 37.119056
6354   1 42.829680 48.540304 39.974368
6355   1 42.829680 48.540304 42.829680
6356   1 42.829680 48.540304 45.684992
6357   1 42.829680 48.540304 48.540304
6358   1 42.829680 48.540304 51.395616
6359   1 42.829680 48.540304 54.250928
6360   1 42.829680 51.395616  0.000000
6361   1 42.829680 51.395616  2.855312
6362   1 42.829680 51.395616  5.710624
6363   1 42.829680 51.395616  8.565936
6364   1 42.829680 51.395616 11.421248
6365   1 42.829680 51.395616 14.276560
6366   1 42.829680 51.395616 17.131872
6367   1 42.829680 51.395616 19.987184
6368   1 42.829680 51.395616 22.842496
6369   1 42.829680 51.395616 25.697808
6370   1 42.829680 51.395616 28.553120
6371   1 42.829680 51.395616 31.408432
6372   1 42.829680 51.395616 34.263744
6373   1 42.829680 51.395616 37.119056
6374   1 42.829680 51.395616 39.974368
6375   1 42.829680 51.395616 42.829680
6376   1 42.829680 51.395616 45.684992
6377   1 42.829680 51.395616 48.540304
6378   1 42.829680 51.395616 51.395616
6379   1 42.829680 51.395616 54.250928
6380   1 42.829680 54.250928  0.000000
6381   1 42.829680 54.250928  2.855312
6382   1 42.829680 54.250928  5.710624
6383   1 42.829680 54.250928  8.565936
6384   1 42.829680 54.250928 11.421248
6385   1 42.829680 54.250928 14.276560
6386   1 42.829680 54.250928 17.131872
6387   1 42.829680 54.250928 19.987184
6388   1 42.829680 54.250928 22.842496
6389   1 42.829680 54.250928 25.697808
6390   1 42.829680 54.250928 28.553120
6391   1 42.829680 54.250928 31.408432
6392   1 42.829680 54.250928 34.263744
6393   1 42.829680 54.250928 37.119056
6394   1 42.829680 54.250928 39.974368
6395   1 42.829680 54.250928 42.829680
6396   1 42.829680 54.250928 45.684992
6397   1 42.829680 54.250928 48.540304
6398   1 42.829680 54.250928 51.395616
6399   1 42.829680 54.250928 54.250928
6400   1 45.684992  0.000000  0.000000
6401   1 45.684992  0.000000  2.855312
6402   1 45.684992  0.000000  5.710624
6403   1 45.684992  0.000000  8.565936
6404   1 45.684992  0.000000 11.421248
6405   1 45.684992  0.000000 14.276560
6406   1 45.684992  0.000000 17.131872
6407   1 45.684992  0.000000 19.987184
6408   1 45.684992  0.000000 22.842496
6409   1 45.684992  0.000000 25.697808
6410   1 45.684992  0.000000 28.553120
6411   1 45.684992  0.000000 31.408432
6412   1 45.684992  0.000000 34.263744
6413   1 45.684992  0.000000 37.119056
6414   1 45.684992  0.000000 39.974368
6415   1 45.684992  0.000000 42.829680
6416   1 45.684992  0.000000 45.684992
6417   1 45.684992  0.000000 48.540304
6418   1 45.684992  0.000000 51.395616
6419   1 45.684992  0.000000 54.250928
6420   1 45.684992  2.855312  0.000000
6421   1 45.684992  2.855312  2.855312
6422   1 45.684992  2.855312  5.710624
6423   1 45.684992  2.855312  8.565936
6424   1 45.684992  2.855312 11.421248
6425   1 45.684992  2.855312 14.276560
6426   1 45.684992  2.855312 17.131872
6427   1 45.684992  2.855312 19.987184
6428   1 45.684992  2.855312 22.842496
6429   1 45.684992  2.855312 25.697808
6430   1 45.684992  2.855312 28.553120
6431   1 45.684992  2.855312 31.408432
6432   1 45.684992  2.855312 34.263744
6433   1 45.684992  2.855312 37.119056
6434   1 45.684992  2.855312 39.974368
6435   1 45.684992  2.855312 42.829680
6436   1 45.684992  2.855312 45.684992
6437   1 45.684992  2.855312 48.540304
6438   1 45.684992  2.855312 51.395616
6439   1 45.684992  2.855312 54.250928
6440   1 45.684992  5.710624  0.000000
6441   1 45.684992  5.710624  2.855312
6442   1 45.684992  5.710624  5.710624
6443   1 45.684992  5.710624  8.565936
6444   1 45.684992  5.710624 11.421248
6445   1 45.684992  5.710624 14.276560
6446   1 45.684992  5.710624 17.131872
6447   1 45.684992  5.710624 19.987184
6448   1 45.684992  5.710624 22.842496
6449   1 45.684992  5.710624 25.697808
6450   1 45.684992  5.710624 28.553120
6451   1 45.684992  5.710624 31.408432
6452   1 45.684992  5.710624 34.263744
6453   1 45.684992  5.710624 37.119056
6454   1 45.684992  5.710624 39.974368
6455   1 45.684992  5.710624 42.829680
6456   1 45.684992  5.710624 45.684992
6457   1 45.684992  5.710624 48.540304
6458   1 45.684992  5.710624 51.395616
6459   1 45.684992  5.710624 54.250928
6460   1 45.684992  8.565936  0.000000
6461   1 45.684992  8.565936  2.855312
6462   1 45.684992  8.565936  5.710624
6463   1 45.684992  8.565936  8.565936
6464   1 45.684992  8.565936 11.421248
6465   1 45.684992  8.565936 14.276560
6466   1 45.684992  8.565936 17.131872
6467   1 45.684992  8.565936 19.987184
6468   1 45.684992  8.565936 22.842496
6469   1 45.684992  8.565936 25.697808
6470   1 45.684992  8.565936 28.553120
6471   1 45.684992  8.565936 31.408432
6472   1 45.684992  8.565936 34.263744
6473   1 45.684992  8.565936 37.119056
6474   1 45.684992  8.565936 39.974368
6475   1 45.684992  8.565936 42.829680
6476   1 45.684992  8.565936 45.684992
6477   1 45.684992  8.565936 48.540304
6478   1 45.684992  8.565936 51.395616
6479   1 45.684992  8.565936 54.250928
6480   1 45.684992 11.421248  0.000000
6481   1 45.684992 11.421248  2.855312
6482   1 45.684992 11.421248  5.710624
6483   1 45.684992 11.421248  8.565936
6484   1 45.684992 11.421248 11.421248
6485   1 45.684992 11.421248 14.276560
6486   1 45.684992 11.421248 17.131872
6487   1 45.684992 11.421248 19.987184
6488   1 45.684992 11.421248 22.842496
6489   1 45.684992 11.421248 25.697808
6490   1 45.684992 11.421248 28.553120
6491   1 45.684992 11.421248 31.408432
6492   1 45.684992 11.421248 34.263744
6493   1 45.684992 11.421248 37.119056
6494   1 45.684992 11.421248 39.974368
6495   1 45.684992 11.421248 42.829680
6496   1 45.684992 11.421248 45.684992
6497   1 45.684992 11.421248 48.540304
6498   1 45.684992 11.421248 51.395616
6499   1 45.684992 11.421248 54.250928
6500   1 45.684992 14.276560  0.000000
6501   1 45.684992 14.276560  2.855312
6502   1 45.684992 14.276560  5.710624
6503   1 45.684992 14.276560  8.565936
6504   1 45.684992 14.276560 11.421248
6505   1 45.684992 14.276560 14.276560
6506   1 45.684992 14.276560 17.131872
6507   1 45.684992 14.276560 19.987184
6508   1 45.684992 14.276560 22.842496
6509   1 45.684992 14.276560 25.697808
6510   1 45.684992 14.276560 28.553120
6511   1 45.684992 14.276560 31.408432
6512   1 45.684992 14.276560 34.263744
6513   1 45.684992 14.276560 37.119056
6514   1 45.684992 14.276560 39.974368
6515   1 45.684992 14.276560 42.829680
6516   1 45.684992 14.276560 45.684992
6517   1 45.684992 14.276560 48.540304
6518   1 45.684992 14.276560 51.395616
6519   1 45.684992 14.276560 54.250928
6520   1 45.684992 17.131872  0.000000
6521   1 45.684992 17.131872  2.855312
6522   1 45.684992 17.131872  5.710624
6523   1 45.684992 17.131872  8.565936
6524   1 45.684992 17.131872 11.421248
6525   1 45.684992 17.131872 14.276560
6526   1 45.684992 17.131872 17.131872
6527   1 45.684992 17.131872 19.987184
6528   1 45.684992 17.131872 22.842496
6529   1 45.684992 17.131872 25.697808
6530   1 45.684992 17.131872 28.553120
6531   1 45.684992 17.131872 31.408432
6532   1 45.684992 17.131872 34.263744
6533   1 45.684992 17.131872 37.119056
6534   1 45.684992 17.131872 39.974368
6535   1 45.684992 17.131872 42.829680
6536   1 45.684992 17.131872 45.684992
6537   1 45.684992 17.131872 48.540304
6538   1 45.684992 17.131872 51.395616
6539   1 45.684992 17.131872 54.250928
6540   1 45.684992 19.987184  0.000000
6541   1 45.684992 19.987184  2.855312
6542   1 45.684992 19.987184  5.710624
6543   1 45.684992 19.987184  8.565936
6544   1 45.684992 19.987184 11.421248
6545   1 45.684992 19.987184 14.276560
6546   1 45.684992 19.987184 17.131872
6547   1 45.684992 19.987184 19.987184
6548   1 45.684992 19.987184 22.842496
6549   1 45.684992 19.987184 25.697808
6550   1 45.684992 19.987184 28.553120
6551   1 45.684992 19.987184 31.408432
6552   1 45.684992 19.987184 34.263744
6553   1 45.684992 19.987184 37.119056
6554   1 45.684992 19.987184 39.974368
6555   1 45.684992 19.987184 42.829680
6556   1 45.684992 19.987184 45.684992
6557   1 45.684992 19.987184 48.540304
6558   1 45.684992 19.987184 51.395616
6559   1 45.684992 19.987184 54.250928
6560   1 45.684992 22.842496  0.000000
6561   1 45.684992 22.842496  2.855312
6562   1 45.684992 22.842496  5.710624
6563   1 45.684992 22.842496  8.565936
6564   1 45.684992 22.842496 11.421248
6565   1 45.684992 22.842496 14.276560
6566   1 45.684992 22.842496 17.131872
6567   1 45.684992 22.842496 19.987184
6568   1 45.684992 22.842496 22.842496
6569   1 45.684992 22.842496 25.697808
6570   1 45.684992 22.842496 28.553120
6571   1 45.684992 22.842496 31.408432
6572   1 45.684992 22.842496 34.263744
6573   1 45.684992 22.842496 37.119056
6574   1 45.684992 22.842496 39.974368
6575   1 45.684992 22.842496 42.829680
6576   1 45.684992 22.842496 45.684992
6577   1 45.684992 22.842496 48.540304
6578   1 45.684992 22.842496 51.395616
6579   1 45.684992 22.842496 54.250928
6580   1 45.684992 25.697808  0.000000
6581   1 45.684992 25.697808  2.855312
6582   1 45.684992 25.697808  5.710624
6583   1 45.684992 25.697808  8.565936
6584   1 45.684992 25.697808 11.421248
6585   1 45.684992 25.697808 14.276560
6586   1 45.684992 25.697808 17.131872
6587   1 45.684992 25.697808 19.987184
6588   1 45.684992 25.697808 22.842496
6589   1 45.684992 25.697808 25.697808
6590   1 45.684992 25.697808 28.553120
6591   1 45.684992 25.697808 31.408432
6592   1 45.684992 25.697808 34.263744
6593   1 45.684992 25.697808 37.119056
6594   1 45.684992 25.697808 39.974368
6595   1 45.684992 25.697808 42.829680
6596   1 45.684992 25.697808 45.684992
6597   1 45.684992 25.697808 48.540304
6598   1 45.684992 25.697808 51.395616
6599   1 45.684992 25.697808 54.250928
6600   1 45.684992 28.553120  0.000000
6601   1 45.684992 28.553120  2.855312
6602   1 45.684992 28.553120  5.710624
6603   1 45.684992 28.553120  8.565936
6604   1 45.684992 28.553120 11.421248
6605   1 45.684992 28.553120 14.276560
6606   1 45.684992 28.553120 17.131872
6607   1 45.684992 28.553120 19.987184
6608   1 45.684992 28.553120 22.842496
6609   1 45.684992 28.553120 25.697808
6610   1 45.684992 28.553120 28.553120
6611   1 45.684992 28.553120 31.408432
6612   1 45.684992 28.553120 34.263744
6613   1 45.684992 28.553120 37.119056
6614   1 45.684992 28.553120 39.974368
6615   1 45.684992 28.553120 42.829680
6616   1 45.684992 28.553120 45.684992
6617   1 45.684992 28.553120 48.540304
6618   1 45.684992 28.553120 51.395616
6619   1 45.684992 28.553120 54.250928
6620   1 45.684992 31.408432  0.000000
6621   1 45.684992 31.408432  2.855312
6622   1 45.684992 31.408432  5.710624
6623   1 45.684992 31.408432  8.565936
6624   1 45.684992 31.408432 11.421248
6625   1 45.684992 31.408432 14.276560
6626   1 45.684992 31.408432 17.131872
6627   1 45.684992 31.408432 19.987184
6628   1 45.684992 31.408432 22.842496
6629   1 45.684992 31.408432 25.697808
6630   1 45.684992 31.408432 28.553120
6631   1 45.684992 31.408432 31.408432
6632   1 45.684992 31.408432 34.263744
6633   1 45.684992 31.408432 37.119056
6634   1 45.684992 31.408432 39.974368
6635   1 45.684992 31.408432 42.829680
6636   1 45.684992 31.408432 45.684992
6637   1 45.684992 31.408432 48.540304
6638   1 45.684992 31.408432 51.395616
6639   1 45.684992 31.408432 54.250928
6640   1 45.684992 34.263744  0.000000
6641   1 45.684992 34.263744  2.855312
6642   1 45.684992 34.263744  5.710624
6643   1 45.684992 34.263744  8.565936
6644   1 45.684992 34.263744 11.421248
6645   1 45.684992 34.263744 14.276560
6646   1 45.684992 34.263744 17.131872
6647   1 45.684992 34.263744 19.987184
6648   1 45.684992 34.263744 22.842496
6649   1 45.684992 34.263744 25.697808
6650   1 45.684992 34.263744 28.553120
6651   1 45.684992 34.263744 31.408432
6652   1 45.684992 34.263744 34.263744
6653   1 45.684992 34.263744 37.119056
6654   1 45.684992 34.263744 39.974368
6655   1 45.684992 34.263744 42.829680
6656   1 45.684992 34.263744 45.684992
6657   1 45.684992 34.263744 48.540304
6658   1 45.684992 34.263744 51.395616
6659   1 45.684992 34.263744 54.250928
6660   1 45.684992 37.119056  0.000000
6661   1 45.684992 37.119056  2.855312
6662   1 45.684992 37.119056  5.710624
6663   1 45.684992 37.119056  8.565936
6664   1 45.684992 37.119056 11.421248
6665   1 45.684992 37.119056 14.276560
6666   1 45.684992 37.119056 17.131872
6667   1 45.684992 37.119056 19.987184
6668   1 45.684992 37.119056 22.842496
6669   1 45.684992 37.119056 25.697808
6670   1 45.684992 37.119056 28.553120
6671   1 45.684992 37.119056 31.408432
6672   1 45.684992 37.119056 34.263744
6673   1 45.684992 37.119056 37.119056
6674   1 45.684992 37.119056 39.974368
6675   1 45.684992 37.119056 42.829680
6676   1 45.684992 37.119056 45.684992
6677   1 45.684992 37.119056 48.540304
6678   1 45.684992 37.119056 51.395616
6679   1 45.684992 37.119056 54.250928
6680   1 45.684992 39.974368  0.000000
6681   1 45.684992 39.974368  2.855312
6682   1 45.684992 39.974368  5.710624
6683   1 45.684992 39.974368  8.565936
6684   1 45.684992 39.974368 11.421248
6685   1 45.684992 39.974368 14.276560
6686   1 45.684992 39.974368 17.131872
6687   1 45.684992 39.974368 19.987184
6688   1 45.684992 39.974368 22.842496
6689   1 45.684992 39.974368 25.697808
6690   1 45.684992 39.974368 28.553120
6691   1 45.684992 39.974368 31.408432
6692   1 45.684992 39.974368 34.263744
6693   1 45.684992 39.974368 37.119056
6694   1 45.684992 39.974368 39.974368
6695   1 45.684992 39.974368 42.829680
6696   1 45.684992 39.974368 45.684992
6697   1 45.684992 39.974368 48.540304
6698   1 45.684992 39.974368 51.395616
6699   1 45.684992 39.974368 54.250928
6700   1 45.684992 42.829680  0.000000
6701   1 45.684992 42.829680  2.855312
6702   1 45.684992 42.829680  5.710624
6703   1 45.684992 42.829680  8.565936
6704   1 45.684992 42.829680 11.421248
6705   1 45.684992 42.829680 14.276560
6706   1 45.684992 42.829680 17.131872
6707   1 45.684992 42.829680 19.987184
6708   1 45.684992 42.829680 22.842496
6709   1 45.684992 42.829680 25.697808
6710   1 45.684992 42.829680 28.553120
6711   1 45.684992 42.829680 31.408432
6712   1 45.684992 42.829680 34.263744
6713   1 45.684992 42.829680 37.119056
6714   1 45.684992 42.829680 39.974368
6715   1 45.684992 42.829680 42.829680
6716   1 45.684992 42.829680 45.684992
6717   1 45.684992 42.829680 48.540304
6718   1 45.684992 42.829680 51.395616
6719   1 45.684992 42.829680 54.250928
6720   1 45.684992 45.684992  0.000000
6721   1 45.684992 45.684992  2.855312
6722   1 45.684992 45.684992  5.710624
6723   1 45.684992 45.684992  8.565936
6724   1 45.684992 45.684992 11.421248
6725   1 45.684992 45.684992 14.276560
6726   1 45.684992 45.684992 17.131872
6727   1 45.684992 45.684992 19.987184
6728   1 45.684992 45.684992 22.842496
6729   1 45.684992 45.684992 25.697808
6730   1 45.684992 45.684992 28.553120
6731   1 45.684992 45.684992 31.408432
6732   1 45.684992 45.684992 34.263744
6733   1 45.684992 45.684992 37.119056
6734   1 45.684992 45.684992 39.974368
6735   1 45.684992 45.684992 42.829680
6736   1 45.684992 45.684992 45.684992
6737   1 45.684992 45.684992 48.540304
6738   1 45.684992 45.684992 51.395616
6739   1 45.684992 45.684992 54.250928
6740   1 45.684992 48.540304  0.000000
6741   1 45.684992 48.540304  2.855312
6742   1 45.684992 48.540304  5.710624
6743   1 45.684992 48.540304  8.565936
6744   1 45.684992 48.540304 11.421248
6745   1 45.684992 48.540304 14.276560
6746   1 45.684992 48.540304 17.131872
6747   1 45.684992 48.540304 19.987184
6748   1 45.684992 48.540304 22.842496
6749   1 45.684992 48.540304 25.697808
6750   1 45.684992 48.540304 28.553120
6751   1 45.684992 48.540304 31.408432
6752   1 45.684992 48.540304 34.263744
6753   1 45.684992 48.540304 37.119056
6754   1 45.684992 48.540304 39.974368
6755   1 45.684992 48.540304 42.829680
6756   1 45.684992 48.540304 45.684992
6757   1 45.684992 48.540304 48.540304
6758   1 45.684992 48.540304 51.395616
6759   1 45.684992 48.540304 54.250928
6760   1 45.684992 51.395616  0.000000
6761   1 45.684992 51.395616  2.855312
6762   1 45.684992 51.395616  5.710624
6763   1 45.684992 51.395616  8.565936
6764   1 45.684992 51.395616 11.421248
6765   1 45.684992 51.395616 14.276560
6766   1 45.684992 51.395616 17.131872
6767   1 45.684992 51.395616 19.987184
6768   1 45.684992 51.395616 22.842496
6769   1 45.684992 51.395616 25.697808
6770   1 45.684992 51.395616 28.553120
6771   1 45.684992 51.395616 31.408432
6772   1 45.684992 51.395616 34.263744
6773   1 45.684992 51.395616 37.119056
6774   1 45.684992 51.395616 39.974368
6775   1 45.684992 51.395616 42.829680
6776   1 45.684992 51.395616 45.684992
6777   1 45.684992 51.395616 48.540304
6778   1 45.684992 51.395616 51.395616
6779   1 45.684992 51.395616 54.250928
6780   1 45.684992 54.250928  0.000000
6781   1 45.684992 54.250928  2.855312
6782   1 45.684992 54.250928  5.710624
6783   1 45.684992 54.250928  8.565936
6784   1 45.684992 54.250928 11.421248
6785   1 45.684992 54.250928 14.276560
6786   1 45.684992 54.250928 17.131872
6787   1 45.684992 54.250928 19.987184
6788   1 45.684992 54.250928 22.842496
6789   1 45.684992 54.250928 25.697808
6790   1 45.684992 54.250928 28.553120
6791   1 45.684992 54.250928 31.408432
6792   1 45.684992 54.250928 34.263744
6793   1 45.684992 54.250928 37.119056
6794   1 45.684992 54.250928 39.974368
6795   1 45.684992 54.250928 42.829680
6796   1 45.684992 54.250928 45.684992
6797   1 45.684992 54.250928 48.540304
6798   1 45.684992 54.250928 51.395616
6799   1 45.684992 54.250928 54.250928
6800   1 48.540304  0.000000  0.000000
6801   1 48.540304  0.000000  2.855312
6802   1 48.540304  0.000000  5.710624
6803   1 48.540304  0.000000  8.565936
6804   1 48.540304  0.000000 11.421248
6805   1 48.540304  0.000000 14.276560
6806   1 48.540304  0.000000 17.131872
6807   1 48.540304  0.000000 19.987184
6808   1 48.540304  0.000000 22.842496
6809   1 48.540304  0.000000 25.697808
6810   1 48.540304  0.000000 28.553120
6811   1 48.540304  0.000000 31.408432
6812   1 48.540304  0.000000 34.263744
6813   1 48.540304  0.000000 37.119056
6814   1 48.540304  0.000000 39.974368
6815   1 48.540304  0.000000 42.829680
6816   1 48.540304  0.000000 45.684992
6817   1 48.540304  0.000000 48.540304
6818   1 48.540304  0.000000 51.395616
6819   1 48.540304  0.000000 54.250928
6820   1 48.540304  2.855312  0.000000
6821   1 48.540304  2.855312  2.855312
6822   1 48.540304  2.855312  5.710624
6823   1 48.540304  2.855312  8.565936
6824   1 48.540304  2.855312 11.421248
6825   1 48.540304  2.855312 14.276560
6826   1 48.540304  2.855312 17.131872
6827   1 48.540304  2.855312 19.987184
6828   1 48.540304  2.855312 22.842496
6829   1 48.540304  2.855312 25.697808
6830   1 48.540304  2.855312 28.553120
6831   1 48.540304  2.855312 31.408432
6832   1 48.540304  2.855312 34.263744
6833   1 48.540304  2.855312 37.119056
6834   1 48.540304  2.855312 39.974368
6835   1 48.540304  2.855312 42.829680
6836   1 48.540304  2.855312 45.684992
6837   1 48.540304  2.855312 48.540304
6838   1 48.540304  2.855312 51.395616
6839   1 48.540304  2.855312 54.250928
6840   1 48.540304  5.710624  0.000000
6841   1 48.540304  5.710624  2.855312
6842   1 48.540304  5.710624  5.710624
6843   1 48.540304  5.710624  8.565936
6844   1 48.540304  5.710624 11.421248
6845   1 48.540304  5.710624 14.276560
6846   1 48.540304  5.710624 17.131872
6847   1 48.540304  5.710624 19.987184
6848   1 48.540304  5.710624 22.842496
6849   1 48.540304  5.710624 25.697808
6850   1 48.540304  5.710624 28.553120
6851   1 48.540304  5.710624 31.408432
6852   1 48.540304  5.710624 34.263744
6853   1 48.540304  5.710624 37.119056
6854   1 48.540304  5.710624 39.974368
6855   1 48.540304  5.710624 42.829680
6856   1 48.540304  5.710624 45.684992
6857   1 48.540304  5.710624 48.540304
6858   1 48.540304  5.710624 51.395616
6859   1 48.540304  5.710624 54.250928
6860   1 48.540304  8.565936  0.000000
6861   1 48.540304  8.565936  2.855312
6862   1 48.540304  8.565936  5.710624
6863   1 48.540304  8.565936  8.565936
6864   1 48.540304  8.565936 11.421248
6865   1 48.540304  8.565936 14.276560
6866   1 48.540304  8.565936 17.131872
6867   1 48.540304  8.565936 19.987184
6868   1 48.540304  8.565936 22.842496
6869   1 48.540304  8.565936 25.697808
6870   1 48.540304  8.565936 28.553120
6871   1 48.540304  8.565936 31.408432
6872   1 48.540304  8.565936 34.263744
6873   1 48.540304  8.565936 37.119056
6874   1 48.540304  8.565936 39.974368
6875   1 48.540304  8.565936 42.829680
6876   1 48.540304  8.565936 45.684992
6877   1 48.540304  8.565936 48.540304
6878   1 48.540304  8.565936 51.395616
6879   1 48.540304  8.565936 54.250928
6880   1 48.540304 11.421248  0.000000
6881   1 48.540304 11.421248  2.855312
6882   1 48.540304 11.421248  5.710624
6883   1 48.540304 11.421248  8.565936
6884   1 48.540304 11.421248 11.421248
6885   1 48.540304 11.421248 14.276560
6886   1 48.540304 11.421248 17.131872
6887   1 48.540304 11.421248 19.987184
6888   1 48.540304 11.421248 22.842496
6889   1 48.540304 11.421248 25.697808
6890   1 48.540304 11.421248 28.553120
6891   1 48.540304 11.421248 31.408432
6892   1 48.540304 11.421248 34.263744
6893   1 48.540304 11.421248 37.119056
6894   1 48.540304 11.421248 39.974368
6895   1 48.540304 11.421248 42.829680
6896   1 48.540304 11.421248 45.684992
6897   1 48.540304 11.421248 48.540304
6898   1 48.540304 11.421248 51.395616
6899   1 48.540304 11.421248 54.250928
6900   1 48.540304 14.276560  0.000000
6901   1 48.540304 14.276560  2.855312
6902   1 48.540304 14.276560  5.710624
6903   1 48.540304 14.276560  8.565936
6904   1 48.540304 14.276560 11.421248
6905   1 48.540304 14.276560 14.276560
6906   1 48.540304 14.276560 17.131872
6907   1 48.540304 14.276560 19.987184
6908   1 48.540304 14.276560 22.842496
6909   1 48.540304 14.276560 25.697808
6910   1 48.540304 14.276560 28.553120
6911   1 48.540304 14.276560 31.408432
6912   1 48.540304 14.276560 34.263744
6913   1 48.540304 14.276560 37.119056
6914   1 48.540304 14.276560 39.974368
6915   1 48.540304 14.276560 42.829680
6916   1 48.540304 14.276560 45.684992
6917   1 48.540304 14.276560 48.540304
6918   1 48.540304 14.276560 51.395616
6919   1 48.540304 14.276560 54.250928
6920   1 48.540304 17.131872  0.000000
6921   1 48.540304 17.131872  2.855312
6922   1 48.540304 17.131872  5.710624
6923   1 48.540304 17.131872  8.565936
6924   1 48.540304 17.131872 11.421248
6925   1 48.540304 17.131872 14.276560
6926   1 48.540304 17.131872 17.131872
6927   1 48.540304 17.131872 19.987184
6928   1 48.540304 17.131872 22.842496
6929   1 48.540304 17.131872 25.697808
6930   1 48.540304 17.131872 28.553120
6931   1 48.540304 17.131872 31.408432
6932   1 48.540304 17.131872 34.263744
6933   1 48.540304 17.131872 37.119056
6934   1 48.540304 17.131872 39.974368
6935   1 48.540304 17.131872 42.829680
6936   1 48.540304 17.131872 45.684992
6937   1 48.540304 17.131872 48.540304
6938   1 48.540304 17.131872 51.395616
6939   1 48.540304 17.131872 54.250928
6940   1 48.540304 19.987184  0.000000
6941   1 48.540304 19.987184  2.855312
6942   1 48.540304 19.987184  5.710624
6943   1 48.540304 19.987184  8.565936
6944   1 48.540304 19.987184 11.421248
6945   1 48.540304 19.987184 14.276560
6946   1 48.540304 19.987184 17.131872
6947   1 48.540304 19.987184 19.987184
6948   1 48.540304 19.987184 22.842496
6949   1 48.540304 19.987184 25.697808
6950   1 48.540304 19.987184 28.553120
6951   1 48.540304 19.987184 31.408432
6952   1 48.540304 19.987184 34.263744
6953   1 48.540304 19.987184 37.119056
6954   1 48.540304 19.987184 39.974368
6955   1 48.540304 19.987184 42.829680
6956   1 48.540304 19.987184 45.684992
6957   1 48.540304 19.987184 48.540304
6958   1 48.540304 19.987184 51.395616
6959   1 48.540304 19.987184 54.250928
6960   1 48.540304 22.842496  0.000000
6961   1 48.540304 22.842496  2.855312
6962   1 48.540304 22.842496  5.710624
6963   1 48.540304 22.842496  8.565936
6964   1 48.540304 22.842496 11.421248
6965   1 48.540304 22.842496 14.276560
6966   1 48.540304 22.842496 17.131872
6967   1 48.540304 22.842496 19.987184
6968   1 48.540304 22.842496 22.842496
6969   1 48.540304 22.842496 25.697808
6970   1 48.540304 22.842496 28.553120
6971   1 48.540304 22.842496 31.408432
6972   1 48.540304 22.842496 34.263744
6973   1 48.540304 22.842496 37.119056
6974   1 48.540304 22.842496 39.974368
6975   1 48.540304 22.842496 42.829680
6976   1 48.540304 22.842496 45.684992
6977   1 48.540304 22.842496 48.540304
6978   1 48.540304 22.842496 51.395616
6979   1 48.540304 22.842496 54.250928
6980   1 48.540304 25.697808  0.000000
6981   1 48.540304 25.697808  2.855312
6982   1 48.540304 25.697808  5.710624
6983   1 48.540304 25.697808  8.565936
6984   1 48.540304 25.697808 11.421248
6985   1 48.540304 25.697808 14.276560
6986   1 48.540304 25.697808 17.131872
6987   1 48.540304 25.697808 19.987184
6988   1 48.540304 25.697808 22.842496
6989   1 48.540304 25.697808 25.697808
6990   1 48.540304 25.697808 28.553120
6991   1 48.540304 25.697808 31.408432
6992   1 48.540304 25.697808 34.263744
6993   1 48.540304 25.697808 37.119056
6994   1 48.540304 25.697808 39.974368
6995   1 48.540304 25.697808 42.829680
6996   1 48.540304 25.697808 45.684992
6997   1 48.540304 25.697808 48.540304
6998   1 48.540304 25.697808 51.395616
6999   1 48.540304 25.697808 54.250928
7000   1 48.540304 28.553120  0.000000
7001   1 48.540304 28.553120  2.855312
7002   1 48.540304 28.553120  5.710624
7003   1 48.540304 28.553120  8.565936
7004   1 48.540304 28.553120 11.421248
7005   1 48.540304 28.553120 14.276560
7006   1 48.540304 28.553120 17.131872
7007   1 48.540304 28.553120 19.987184
7008   1 48.540304 28.553120 22.842496
7009   1 48.540304 28.553120 25.697808
7010   1 48.540304 28.553120 28.553120
7011   1 48.540304 28.553120 31.408432
7012   1 48.540304 28.553120 34.263744
7013   1 48.540304 28.553120 37.119056
7014   1 48.540304 28.553120 39.974368
7015   1 48.540304 28.553120 42.829680
7016   1 48.540304 28.553120 45.684992
7017   1 48.540304 28.553120 48.540304
7018   1 48.540304 28.553120 51.395616
7019   1 48.540304 28.553120 54.250928
7020   1 48.540304 31.408432  0.000000
7021   1 48.540304 31.408432  2.855312
7022   1 48.540304 31.408432  5.710624
7023   1 48.540304 31.408432  8.565936
7024   1 48.540304 31.408432 11.421248
7025   1 48.540304 31.408432 14.276560
7026   1 48.540304 31.408432 17.131872
7027   1 48.540304 31.408432 19.987184
7028   1 48.540304 31.408432 22.842496
7029   1 48.540304 31.408432 25.697808
7030   1 48.540304 31.408432 28.553120
7031   1 48.540304 31.408432 31.408432
7032   1 48.540304 31.408432 34.263744
7033   1 48.540304 31.408432 37.119056
7034   1 48.540304 31.408432 39.974368
7035   1 48.540304 31.408432 42.829680
7036   1 48.540304 31.408432 45.684992
7037   1 48.540304 31.408432 48.540304
7038   1 48.540304 31.408432 51.395616
7039   1 48.540304 31.408432 54.250928
7040   1 48.540304 34.263744  0.000000
7041   1 48.540304 34.263744  2.855312
7042   1 48.540304 34.263744  5.710624
7043   1 48.540304 34.263744  8.565936
7044   1 48.540304 34.263744 11.421248
7045   1 48.540304 34.263744 14.276560
7046   1 48.540304 34.263744 17.131872
7047   1 48.540304 34.263744 19.987184
7048   1 48.540304 34.263744 22.842496
7049   1 48.540304 34.263744 25.697808
7050   1 48.540304 34.263744 28.553120
7051   1 48.540304 34.263744 31.408432
7052   1 48.540304 34.263744 34.263744
7053   1 48.540304 34.263744 37.119056
7054   1 48.540304 34.263744 39.974368
7055   1 48.540304 34.263744 42.829680
7056   1 48.540304 34.263744 45.684992
7057   1 48.540304 34.263744 48.540304
7058   1 48.540304 34.263744 51.395616
7059   1 48.540304 34.263744 54.250928
7060   1 48.540304 37.119056  0.000000
7061   1 48.540304 37.119056  2.855312
7062   1 48.540304 37.119056  5.710624
7063   1 48.540304 37.119056  8.565936
7064   1 48.540304 37.119056 11.421248
7065   1 48.540304 37.119056 14.276560
7066   1 48.540304 37.119056 17.131872
7067   1 48.540304 37.119056 19.987184
7068   1 48.540304 37.119056 22.842496
7069   1 48.540304 37.119056 25.697808
7070   1 48.540304 37.119056 28.553120
7071   1 48.540304 37.119056 31.408432
7072   1 48.540304 37.119056 34.263744
7073   1 48.540304 37.119056 37.119056
7074   1 48.540304 37.119056 39.974368
7075   1 48.540304 37.119056 42.829680
7076   1 48.540304 37.119056 45.684992
7077   1 48.540304 37.119056 48.540304
7078   1 48.540304 37.119056 51.395616
7079   1 48.540304 37.119056 54.250928
7080   1 48.540304 39.974368  0.000000
7081   1 48.540304 39.974368  2.855312
7082   1 48.540304 39.974368  5.710624
7083   1 48.540304 39.974368  8.565936
7084   1 48.540304 39.974368 11.421248
7085   1 48.540304 39.974368 14.276560
7086   1 48.540304 39.974368 17.131872
7087   1 48.540304 39.974368 19.987184
7088   1 48.540304 39.974368 22.842496
7089   1 48.540304 39.974368 25.697808
7090   1 48.540304 39.974368 28.553120
7091   1 48.540304 39.974368 31.408432
7092   1 48.540304 39.974368 34.263744
7093   1 48.540304 39.974368 37.119056
7094   1 48.540304 39.974368 39.974368
7095   1 48.540304 39.974368 42.829680
7096   1 48.540304 39.974368 45.684992
7097   1 48.540304 39.974368 48.540304
7098   1 48.540304 39.974368 51.395616
7099   1 48.540304 39.974368 54.250928
7100   1 48.540304 42.829680  0.000000
7101   1 48.540304 42.829680  2.855312
7102   1 48.540304 42.829680  5.710624
7103   1 48.540304 42.829680  8.565936
7104   1 48.540304 42.829680 11.421248
7105   1 48.540304 42.829680 14.276560
7106   1 48.540304 42.829680 17.131872
7107   1 48.540304 42.829680 19.987184
7108   1 48.540304 42.829680 22.842496
7109   1 48.540304 42.829680 25.697808
7110   1 48.540304 42.829680 28.553120
7111   1 48.540304 42.829680 31.408432
7112   1 48.540304 42.829680 34.263744
7113   1 48.540304 42.829680 37.119056
7114   1 48.540304 42.829680 39.974368
7115   1 48.540304 42.829680 42.829680
7116   1 48.540304 42.829680 45.684992
7117   1 48.540304 42.829680 48.540304
7118   1 48.540304 42.829680 51.395616
7119   1 48.540304 42.829680 54.250928
7120   1 48.540304 45.684992  0.000000
7121   1 48.540304 45.684992  2.855312
7122   1 48.540304 45.684992  5.710624
7123   1 48.540304 45.684992  8.565936
7124   1 48.540304 45.684992 11.421248
7125   1 48.540304 45.684992 14.276560
7126   1 48.540304 45.684992 17.131872
7127   1 48.540304 45.684992 19.987184
7128   1 48.540304 45.684992 22.842496
7129   1 48.540304 45.684992 25.697808
7130   1 48.540304 45.684992 28.553120
7131   1 48.540304 45.684992 31.408432
7132   1 48.540304 45.684992 34.263744
7133   1 48.540304 45.684992 37.119056
7134   1 48.540304 45.684992 39.974368
7135   1 48.540304 45.684992 42.829680
7136   1 48.540304 45.684992 45.684992
7137   1 48.540304 45.684992 48.540304
7138   1 48.540304 45.684992 51.395616
7139   1 48.540304 45.684992 54.250928
7140   1 48.540304 48.540304  0.000000
7141   1 48.540304 48.540304  2.855312
7142   1 48.540304 48.540304  5.710624
7143   1 48.540304 48.540304  8.565936
7144   1 48.540304 48.540304 11.421248
7145   1 48.540304 48.540304 14.276560
7146   1 48.540304 48.540304 17.131872
7147   1 48.540304 48.540304 19.987184
7148   1 48.540304 48.540304 22.842496
7149   1 48.540304 48.540304 25.697808
7150   1 48.540304 48.540304 28.553120
7151   1 48.540304 48.540304 31.408432
7152   1 48.540304 48.540304 34.263744
7153   1 48.540304 48.540304 37.119056
7154   1 48.540304 48.540304 39.974368
7155   1 48.540304 48.540304 42.829680
7156   1 48.540304 48.540304 45.684992
7157   1 48.540304 48.540304 48.540304
7158   1 48.540304 48.540304 51.395616
7159   1 48.540304 48.540304 54.250928
7160   1 48.540304 51.395616  0.000000
7161   1 48.540304 51.395616  2.855312
7162   1 48.540304 51.395616  5.710624
7163   1 48.540304 51.395616  8.565936
7164   1 48.540304 51.395616 11.421248
7165   1 48.540304 51.395616 14.276560
7166   1 48.540304 51.395616 17.131872
7167   1 48.540304 51.395616 19.987184
7168   1 48.540304 51.395616 22.842496
7169   1 48.540304 51.395616 25.697808
7170   1 48.540304 51.395616 28.553120
7171   1 48.540304 51.395616 31.408432
7172   1 48.540304 51.395616 34.263744
7173   1 48.540304 51.395616 37.119056
7174   1 48.540304 51.395616 39.974368
7175   1 48.540304 51.395616 42.829680
7176   1 48.540304 51.395616 45.684992
7177   1 48.540304 51.395616 48.540304
7178   1 48.540304 51.395616 51.395616
7179   1 48.540304 51.395616 54.250928
7180   1 48.540304 54.250928  0.000000
7181   1 48.540304 54.250928  2.855312
7182   1 48.540304 54.250928  5.710624
7183   1 48.540304 54.250928  8.565936
7184   1 48.540304 54.250928 11.421248
7185   1 48.540304 54.250928 14.276560
7186   1 48.540304 54.250928 17.131872
7187   1 48.540304 54.250928 19.987184
7188   1 48.540304 54.250928 22.842496
7189   1 48.540304 54.250928 25.697808
7190   1 48.540304 54.250928 28.553120
7191   1 48.540304 54.250928 31.408432
7192   1 48.540304 54.250928 34.263744
7193   1 48.540304 54.250928 37.119056
7194   1 48.540304 54.250928 39.974368
7195   1 48.540304 54.250928 42.829680
7196   1 48.540304 54.250928 45.684992
7197   1 48.540304 54.250928 48.540304
7198   1 48.540304 54.250928 51.395616
7199   1 48.540304 54.250928 54.250928
7200   1 51.395616  0.000000  0.000000
7201   1 51.395616  0.000000  2.855312
7202   1 51.395616  0.000000  5.710624
7203   1 51.395616  0.000000  8.565936
7204   1 51.395616  0.000000 11.421248
7205   1 51.395616  0.000000 14.276560
7206   1 51.395616  0.000000 17.131872
7207   1 51.395616  0.000000 19.987184
7208   1 51.395616  0.000000 22.842496
7209   1 51.395616  0.000000 25.697808
7210   1 51.395616  0.000000 28.553120
7211   1 51.395616  0.000000 31.408432
7212   1 51.395616  0.000000 34.263744
7213   1 51.395616  0.000000 37.119056
7214   1 51.395616  0.000000 39.974368
7215   1 51.395616  0.000000 42.829680
7216   1 51.395616  0.000000 45.684992
7217   1 51.395616  0.000000 48.540304
7218   1 51.395616  0.000000 51.395616
7219   1 51.395616  0.000000 54.250928
7220   1 51.395616  2.855312  0.000000
7221   1 51.395616  2.855312  2.855312
7222   1 51.395616  2.855312  5.710624
7223   1 51.395616  2.855312  8.565936
7224   1 51.395616  2.855312 11.421248
7225   1 51.395616  2.855312 14.276560
7226   1 51.395616  2.855312 17.131872
7227   1 51.395616  2.855312 19.987184
7228   1 51.395616  2.855312 22.842496
7229   1 51.395616  2.855312 25.697808
7230   1 51.395616  2.855312 28.553120
7231   1 51.395616  2.855312 31.408432
7232   1 51.395616  2.855312 34.263744
7233   1 51.395616  2.855312 37.119056
7234   1 51.395616  2.855312 39.974368
7235   1 51.395616  2.855312 42.829680
7236   1 51.395616  2.855312 45.684992
7237   1 51.395616  2.855312 48.540304
7238   1 51.395616  2.855312 51.395616
7239   1 51.395616  2.855312 54.250928
7240   1 51.395616  5.710624  0.000000
7241   1 51.395616  5.710624  2.855312
7242   1 51.395616  5.710624  5.710624
7243   1 51.395616  5.710624  8.565936
7244   1 51.395616  5.710624 11.421248
7245   1 51.395616  5.710624 14.276560
7246   1 51.395616  5.710624 17.131872
7247   1 51.395616  5.710624 19.987184
7248   1 51.395616  5.710624 22.842496
7249   1 51.395616  5.710624 25.697808
7250   1 51.395616  5.710624 28.553120
7251   1 51.395616  5.710624 31.408432
7252   1 51.395616  5.710624 34.263744
7253   1 51.395616  5.710624 37.119056
7254   1 51.395616  5.710624 39.974368
7255   1 51.395616  5.710624 42.829680
7256   1 51.395616  5.710624 45.684992
7257   1 51.395616  5.710624 48.540304
7258   1 51.395616  5.710624 51.395616
7259   1 51.395616  5.710624 54.250928
7260   1 51.395616  8.565936  0.000000
7261   1 51.395616  8.565936  2.855312
7262   1 51.395616  8.565936  5.710624
7263   1 51.395616  8.565936  8.565936
7264   1 51.395616  8.565936 11.421248
7265   1 51.395616  8.565936 14.276560
7266   1 51.395616  8.565936 17.131872
7267   1 51.395616  8.565936 19.987184
7268   1 51.395616  8.565936 22.842496
7269   1 51.395616  8.565936 25.697808
7270   1 51.395616  8.565936 28.553120
7271   1 51.395616  8.565936 31.408432
7272   1 51.395616  8.565936 34.263744
7273   1 51.395616  8.565936 37.119056
7274   1 51.395616  8.565936 39.974368
7275   1 51.395616  8.565936 42.829680
7276   1 51.395616  8.565936 45.684992
7277   1 51.395616  8.565936 48.540304
7278   1 51.395616  8.565936 51.395616
7279   1 51.395616  8.565936 54.250928
7280   1 51.395616 11.421248  0.000000
7281   1 51.395616 11.421248  2.855312
7282   1 51.395616 11.421248  5.710624
7283   1 51.395616 11.421248  8.565936
7284   1 51.395616 11.421248 11.421248
7285   1 51.395616 11.421248 14.276560
7286   1 51.395616 11.421248 17.131872
7287   1 51.395616 11.421248 19.987184
7288   1 51.395616 11.421248 22.842496
7289   1 51.395616 11.421248 25.697808
7290   1 51.395616 11.421248 28.553120
7291   1 51.395616 11.421248 31.408432
7292   1 51.395616 11.421248 34.263744
7293   1 51.395616 11.421248 37.119056
7294   1 51.395616 11.421248 39.974368
7295   1 51.395616 11.421248 42.829680
7296   1 51.395616 11.421248 45.684992
7297   1 51.395616 11.421248 48.540304
7298   1 51.395616 11.421248 51.395616
7299   1 51.395616 11.421248 54.250928
7300   1 51.395616 14.276560  0.000000
7301   1 51.395616 14.276560  2.855312
7302   1 51.395616 14.276560  5.710624
7303   1 51.395616 14.276560  8.565936
7304   1 51.395616 14.276560 11.421248
7305   1 51.395616 14.276560 14.276560
7306   1 51.395616 14.276560 17.131872
7307   1 51.395616 14.276560 19.987184
7308   1 51.395616 14.276560 22.842496
7309   1 51.395616 14.276560 25.697808
7310   1 51.395616 14.276560 28.553120
7311   1 51.395616 14.276560 31.408432
7312   1 51.395616 14.276560 34.263744
7313   1 51.395616 14.276560 37.119056
7314   1 51.395616 14.276560 39.974368
7315   1 51.395616 14.276560 42.829680
7316   1 51.395616 14.276560 45.684992
7317   1 51.395616 14.276560 48.540304
7318   1 51.395616 14.276560 51.395616
7319   1 51.395616 14.276560 54.250928
7320   1 51.395616 17.131872  0.000000
7321   1 51.395616 17.131872  2.855312
7322   1 51.395616 17.131872  5.710624
7323   1 51.395616 17.131872  8.565936
7324   1 51.395616 17.131872 11.421248
7325   1 51.395616 17.131872 14.276560
7326   1 51.395616 17.131872 17.131872
7327   1 51.395616 17.131872 19.987184
7328   1 51.395616 17.131872 22.842496
7329   1 51.395616 17.131872 25.697808
7330   1 51.395616 17.131872 28.553120
7331   1 51.395616 17.131872 31.408432
7332   1 51.395616 17.131872 34.263744
7333   1 51.395616 17.131872 37.119056
7334   1 51.395616 17.131872 39.974368
7335   1 51.395616 17.131872 42.829680
7336   1 51.395616 17.131872 45.684992
7337   1 51.395616 17.131872 48.540304
7338   1 51.395616 17.131872 51.395616
7339   1 51.395616 17.131872 54.250928
7340   1 51.395616 19.987184  0.000000
7341   1 51.395616 19.987184  2.855312
7342   1 51.395616 19.987184  5.710624
7343   1 51.395616 19.987184  8.565936
7344   1 51.395616 19.987184 11.421248
7345   1 51.395616 19.987184 14.276560
7346   1 51.395616 19.987184 17.131872
7347   1 51.395616 19.987184 19.987184
7348   1 51.395616 19.987184 22.842496
7349   1 51.395616 19.987184 25.697808
7350   1 51.395616 19.987184 28.553120
7351   1 51.395616 19.987184 31.408432
7352   1 51.395616 19.987184 34.263744
7353   1 51.395616 19.987184 37.119056
7354   1 51.395616 19.987184 39.974368
7355   1 51.395616 19.987184 42.829680
7356   1 51.395616 19.987184 45.684992
7357   1 51.395616 19.987184 48.540304
7358   1 51.395616 19.987184 51.395616
7359   1 51.395616 19.987184 54.250928
7360   1 51.395616 22.842496  0.000000
7361   1 51.395616 22.842496  2.855312
7362   1 51.395616 22.842496  5.710624
7363   1 51.395616 22.842496  8.565936
7364   1 51.395616 22.842496 11.421248
7365   1 51.395616 22.842496 14.276560
7366   1 51.395616 22.842496 17.131872
7367   1 51.395616 22.842496 19.987184
7368   1 51.395616 22.842496 22.842496
7369   1 51.395616 22.842496 25.697808
7370   1 51.395616 22.842496 28.553120
7371   1 51.395616 22.842496 31.408432
7372   1 51.395616 22.842496 34.263744
7373   1 51.395616 22.842496 37.119056
7374   1 51.395616 22.842496 39.974368
7375   1 51.395616 22.842496 42.829680
7376   1 51.395616 22.842496 45.684992
7377   1 51.395616 22.842496 48.540304
7378   1 51.395616 22.842496 51.395616
7379   1 51.395616 22.842496 54.250928
7380   1 51.395616 25.697808  0.000000
7381   1 51.395616 25.697808  2.855312
7382   1 51.395616 25.697808  5.710624
7383   1 51.395616 25.697808  8.565936
7384   1 51.395616 25.697808 11.421248
7385   1 51.395616 25.697808 14.276560
7386   1 51.395616 25.697808 17.131872
7387   1 51.395616 25.697808 19.987184
7388   1 51.395616 25.697808 22.842496
7389   1 51.395616 25.697808 25.697808
7390   1 51.395616 25.697808 28.553120
7391   1 51.395616 25.697808 31.408432
7392   1 51.395616 25.697808 34.263744
7393   1 51.395616 25.697808 37.119056
7394   1 51.395616 25.697808 39.974368
7395   1 51.395616 25.697808 42.829680
7396   1 51.395616 25.697808 45.684992
7397   1 51.395616 25.697808 48.540304
7398   1 51.395616 25.697808 51.395616
7399   1 51.395616 25.697808 54.250928
7400   1 51.395616 28.553120  0.000000
7401   1 51.395616 28.553120  2.855312
7402   1 51.395616 28.553120  5.710624
7403   1 51.395616 28.553120  8.565936
7404   1 51.395616 28.553120 11.421248
7405   1 51.395616 28.553120 14.276560
7406   1 51.395616 28.553120 17.131872
7407   1 51.395616 28.553120 19.987184
7408   1 51.395616 28.553120 22.842496
7409   1 51.395616 28.553120 25.697808
7410   1 51.395616 28.553120 28.553120
7411   1 51.395616 28.553120 31.408432
7412   1 51.395616 28.553120 34.263744
7413   1 51.395616 28.553120 37.119056
7414   1 51.395616 28.553120 39.974368
7415   1 51.395616 28.553120 42.829680
7416   1 51.395616 28.553120 45.684992
7417   1 51.395616 28.553120 48.540304
7418   1 51.395616 28.553120 51.395616
7419   1 51.395616 28.553120 54.250928
7420   1 51.395616 31.408432  0.000000
7421   1 51.395616 31.408432  2.855312
7422   1 51.395616 31.408432  5.710624
7423   1 51.395616 31.408432  8.565936
7424   1 51.395616 31.408432 11.421248
7425   1 51.395616 31.408432 14.276560
7426   1 51.395616 31.408432 17.131872
7427   1 51.395616 31.408432 19.987184
7428   1 51.395616 31.408432 22.842496
7429   1 51.395616 31.408432 25.697808
7430   1 51.395616 31.408432 28.553120
7431   1 51.395616 31.408432 31.408432
7432   1 51.395616 31.408432 34.263744
7433   1 51.395616 31.408432 37.119056
7434   1 51.395616 31.408432 39.974368
7435   1 51.395616 31.408432 42.829680
7436   1 51.395616 31.408432 45.684992
7437   1 51.395616 31.408432 48.540304
7438   1 51.395616 31.408432 51.395616
7439   1 51.395616 31.408432 54.250928
7440   1 51.395616 34.263744  0.000000
7441   1 51.395616 34.263744  2.855312
7442   1 51.395616 34.263744  5.710624
7443   1 51.395616 34.263744  8.565936
7444   1 51.395616 34.263744 11.421248
7445   1 51.395616 34.263744 14.276560
7446   1 51.395616 34.263744 17.131872
7447   1 51.395616 34.263744 19.987184
7448   1 51.395616 34.263744 22.842496
7449   1 51.395616 34.263744 25.697808
7450   1 51.395616 34.263744 28.553120
7451   1 51.395616 34.263744 31.408432
7452   1 51.395616 34.263744 34.263744
7453   1 51.395616 34.263744 37.119056
7454   1 51.395616 34.263744 39.974368
7455   1 51.395616 34.263744 42.829680
7456   1 51.395616 34.263744 45.684992
7457   1 51.395616 34.263744 48.540304
7458   1 51.395616 34.263744 51.395616
7459   1 51.395616 34.263744 54.250928
7460   1 51.395616 37.119056  0.000000
7461   1 51.395616 37.119056  2.855312
7462   1 51.395616 37.119056  5.710624
7463   1 51.395616 37.119056  8.565936
7464   1 51.395616 37.119056 11.421248
7465   1 51.395616 37.119056 14.276560
7466   1 51.395616 37.119056 17.131872
7467   1 51.395616 37.119056 19.987184
7468   1 51.395616 37.119056 22.842496
7469   1 51.395616 37.119056 25.697808
7470   1 51.395616 37.119056 28.553120
7471   1 51.395616 37.119056 31.408432
7472   1 51.395616 37.119056 34.263744
7473   1 51.395616 37.119056 37.119056
7474   1 51.395616 37.119056 39.974368
7475   1 51.395616 37.119056 42.829680
7476   1 51.395616 37.119056 45.684992
7477   1 51.395616 37.119056 48.540304
7478   1 51.395616 37.119056 51.395616
7479   1 51.395616 37.119056 54.250928
7480   1 51.395616 39.974368  0.000000
7481   1 51.395616 39.974368  2.855312
7482   1 51.395616 39.974368  5.710624
7483   1 51.395616 39.974368  8.565936
7484   1 51.395616 39.974368 11.421248
7485   1 51.395616 39.974368 14.276560
7486   1 51.395616 39.974368 17.131872
7487   1 51.395616 39.974368 19.987184
7488   1 51.395616 39.974368 22.842496
7489   1 51.395616 39.974368 25.697808
7490   1 51.395616 39.974368 28.553120
7491   1 51.395616 39.974368 31.408432
7492   1 51.395616 39.974368 34.263744
7493   1 51.395616 39.974368 37.119056
7494   1 51.395616 39.974368 39.974368
7495   1 51.395616 39.974368 42.829680
7496   1 51.395616 39.974368 45.684992
7497   1 51.395616 39.974368 48.540304
7498   1 51.395616 39.974368 51.395616
7499   1 51.395616 39.974368 54.250928
7500   1 51.395616 42.829680  0.000000
7501   1 51.395616 42.829680  2.855312
7502   1 51.395616 42.829680  5.710624
7503   1 51.395616 42.829680  8.565936
7504   1 51.395616 42.829680 11.421248
7505   1 51.395616 42.829680 14.276560
7506   1 51.395616 42.829680 17.131872
7507   1 51.395616 42.829680 19.987184
7508   1 51.395616 42.829680 22.842496
7509   1 51.395616 42.829680 25.697808
7510   1 51.395616 42.829680 28.553120
7511   1 51.395616 42.829680 31.408432
7512   1 51.395616 42.829680 34.263744
7513   1 51.395616 42.829680 37.119056
7514   1 51.395616 42.829680 39.974368
7515   1 51.395616 42.829680 42.829680
7516   1 51.395616 42.829680 45.684992
7517   1 51.395616 42.829680 48.540304
7518   1 51.395616 42.829680 51.395616
7519   1 51.395616 42.829680 54.250928
7520   1 51.395616 45.684992  0.000000
7521   1 51.395616 45.684992  2.855312
7522   1 51.395616 45.684992  5.710624
7523   1 51.395616 45.684992  8.565936
7524   1 51.395616 45.684992 11.421248
7525   1 51.395616 45.684992 14.276560
7526   1 51.395616 45.684992 17.131872
7527   1 51.395616 45.684992 19.987184
7528   1 51.395616 45.684992 22.842496
7529   1 51.395616 45.684992 25.697808
7530   1 51.395616 45.684992 28.553120
7531   1 51.395616 45.684992 31.408432
7532   1 51.395616 45.684992 34.263744
7533   1 51.395616 45.684992 37.119056
7534   1 51.395616 45.684992 39.974368
7535   1 51.395616 45.684992 42.829680
7536   1 51.395616 45.684992 45.684992
7537   1 51.395616 45.684992 48.540304
7538   1 51.395616 45.684992 51.395616
7539   1 51.395616 45.684992 54.250928
7540   1 51.395616 48.540304  0.000000
7541   1 51.395616 48.540304  2.855312
7542   1 51.395616 48.540304  5.710624
7543   1 51.395616 48.540304  8.565936
7544   1 51.395616 48.540304 11.421248
7545   1 51.395616 48.540304 14.276560
7546   1 51.395616 48.540304 17.131872
7547   1 51.395616 48.540304 19.987184
7548   1 51.395616 48.540304 22.842496
7549   1 51.395616 48.540304 25.697808
7550   1 51.395616 48.540304 28.553120
7551   1 51.395616 48.540304 31.408432
7552   1 51.395616 48.540304 34.263744
7553   1 51.395616 48.540304 37.119056
7554   1 51.395616 48.540304 39.974368
7555   1 51.395616 48.540304 42.829680
7556   1 51.395616 48.540304 45.684992
7557   1 51.395616 48.540304 48.540304
7558   1 51.395616 48.540304 51.395616
7559   1 51.395616 48.540304 54.250928
7560   1 51.395616 51.395616  0.000000
7561   1 51.395616 51.395616  2.855312
7562   1 51.395616 51.395616  5.710624
7563   1 51.395616 51.395616  8.565936
7564   1 51.395616 51.395616 11.421248
7565   1 51.395616 51.395616 14.276560
7566   1 51.395616 51.395616 17.131872
7567   1 51.395616 51.395616 19.987184
7568   1 51.395616 51.395616 22.842496
7569   1 51.395616 51.395616 25.697808
7570   1 51.395616 51.395616 28.553120
7571   1 51.395616 51.395616 31.408432
7572   1 51.395616 51.395616 34.263744
7573   1 51.395616 51.395616 37.119056
7574   1 51.395616 51.395616 39.974368
7575   1 51.395616 51.395616 42.829680
7576   1 51.395616 51.395616 45.684992
7577   1 51.395616 51.395616 48.540304
7578   1 51.395616 51.395616 51.395616
7579   1 51.395616 51.395616 54.250928
7580   1 51.395616 54.250928  0.000000
7581   1 51.395616 54.250928  2.855312
7582   1 51.395616 54.250928  5.710624
7583   1 51.395616 54.250928  8.565936
7584   1 51.395616 54.250928 11.421248
7585   1 51.395616 54.250928 14.276560
7586   1 51.395616 54.250928 17.131872
7587   1 51.395616 54.250928 19.987184
7588   1 51.395616 54.250928 22.842496
7589   1 51.395616 54.250928 25.697808
7590   1 51.395616 54.250928 28.553120
7591   1 51.395616 54.250928 31.408432
7592   1 51.395616 54.250928 34.263744
7593   1 51.395616 54.250928 37.119056
7594   1 51.395616 54.250928 39.974368
7595   1 51.395616 54.250928 42.829680
7596   1 51.395616 54.250928 45.684992
7597   1 51.395616 54.250928 48.540304
7598   1 51.395616 54.250928 51.395616
7599   1 51.395616 54.250928 54.250928
7600   1 54.250928  0.000000  0.000000
7601   1 54.250928  0.000000  2.855312
7602   1 54.250928  0.000000  5.710624
7603   1 54.250928  0.000000  8.565936
7604   1 54.250928  0.000000 11.421248
7605   1 54.250928  0.000000 14.276560
7606   1 54.250928  0.000000 17.131872
7607   1 54.250928  0.000000 19.987184
7608   1 54.250928  0.000000 22.842496
7609   1 54.250928  0.000000 25.697808
7610   1 54.250928  0.000000 28.553120
7611   1 54.250928  0.000000 31.408432
7612   1 54.250928  0.000000 34.263744
7613   1 54.250928  0.000000 37.119056
7614   1 54.250928  0.000000 39.974368
7615   1 54.250928  0.000000 42.829680
7616   1 54.250928  0.000000 45.684992
7617   1 54.250928  0.000000 48.540304
7618   1 54.250928  0.000000 51.395616
7619   1 54.250928  0.000000 54.250928
7620   1 54.250928  2.855312  0.000000
7621   1 54.250928  2.855312  2.855312
7622   1 54.250928  2.855312  5.710624
7623   1 54.250928  2.855312  8.565936
7624   1 54.250928  2.855312 11.421248
7625   1 54.250928  2.855312 14.276560
7626   1 54.250928  2.855312 17.131872
7627   1 54.250928  2.855312 19.987184
7628   1 54.250928  2.855312 22.842496
7629   1 54.250928  2.855312 25.697808
7630   1 54.250928  2.855312 28.553120
7631   1 54.250928  2.855312 31.408432
7632   1 54.250928  2.855312 34.263744
7633   1 54.250928  2.855312 37.119056
7634   1 54.250928  2.855312 39.974368
7635   1 54.250928  2.855312 42.829680
7636   1 54.250928  2.855312 45.684992
7637   1 54.250928  2.855312 48.540304
7638   1 54.250928  2.855312 51.395616
7639   1 54.250928  2.855312 54.250928
7640   1 54.250928  5.710624  0.000000
7641   1 54.250928  5.710624  2.855312
7642   1 54.250928  5.710624  5.710624
7643   1 54.250928  5.710624  8.565936
7644   1 54.250928  5.710624 11.421248
7645   1 54.250928  5.710624 14.276560
7646   1 54.250928  5.710624 17.131872
7647   1 54.250928  5.710624 19.987184
7648   1 54.250928  5.710624 22.842496
7649   1 54.250928  5.710624 25.697808
7650   1 54.250928  5.710624 28.553120
7651   1 54.250928  5.710624 31.408432
7652   1 54.250928  5.710624 34.263744
7653   1 54.250928  5.710624 37.119056
7654   1 54.250928  5.710624 39.974368
7655   1 54.250928  5.710624 42.829680
7656   1 54.250928  5.710624 45.684992
7657   1 54.250928  5.710624 48.540304
7658   1 54.250928  5.710624 51.395616
7659   1 54.250928  5.710624 54.250928
7660   1 54.250928  8.565936  0.000000
7661   1 54.250928  8.565936  2.855312
7662   1 54.250928  8.565936  5.710624
7663   1 54.250928  8.565936  8.565936
7664   1 54.250928  8.565936 11.421248
7665   1 54.250928  8.565936 14.276560
7666   1 54.250928  8.565936 17.131872
7667   1 54.250928  8.565936 19.987184
7668   1 54.250928  8.565936 22.842496
7669   1 54.250928  8.565936 25.697808
7670   1 54.250928  8.565936 28.553120
7671   1 54.250928  8.565936 31.408432
7672   1 54.250928  8.565936 34.263744
7673   1 54.250928  8.565936 37.119056
7674   1 54.250928  8.565936 39.974368
7675   1 54.250928  8.565936 42.829680
7676   1 54.250928  8.565936 45.684992
7677   1 54.250928  8.565936 48.540304
7678   1 54.250928  8.565936 51.395616
7679   1 54.250928  8.565936 54.250928
7680   1 54.250928 11.421248  0.000000
7681   1 54.250928 11.421248  2.855312
7682   1 54.250928 11.421248  5.710624
7683   1 54.250928 11.421248  8.565936
7684   1 54.250928 11.421248 11.421248
7685   1 54.250928 11.421248 14.276560
7686   1 54.250928 11.421248 17.131872
7687   1 54.250928 11.421248 19.987184
7688   1 54.250928 11.421248 22.842496
7689   1 54.250928 11.421248 25.697808
7690   1 54.250928 11.421248 28.553120
7691   1 54.250928 11.421248 31.408432
7692   1 54.250928 11.421248 34.263744
7693   1 54.250928 11.421248 37.119056
7694   1 54.250928 11.421248 39.974368
7695   1 54.250928 11.421248 42.829680
7696   1 54.250928 11.421248 45.684992
7697   1 54.250928 11.421248 48.540304
7698   1 54.250928 11.421248 51.395616
7699   1 54.250928 11.421248 54.250928
7700   1 54.250928 14.276560  0.000000
7701   1 54.250928 14.276560  2.855312
7702   1 54.250928 14.276560  5.710624
7703   1 54.250928 14.276560  8.565936
7704   1 54.250928 14.276560 11.421248
7705   1 54.250928 14.276560 14.276560
7706   1 54.250928 14.276560 17.131872
7707   1 54.250928 14.276560 19.987184
7708   1 54.250928 14.276560 22.842496
7709   1 54.250928 14.276560 25.697808
7710   1 54.250928 14.276560 28.553120
7711   1 54.250928 14.276560 31.408432
7712   1 54.250928 14.276560 34.263744
7713   1 54.250928 14.276560 37.119056
7714   1 54.250928 14.276560 39.974368
7715   1 54.250928 14.276560 42.829680
7716   1 54.250928 14.276560 45.684992
7717   1 54.250928 14.276560 48.540304
7718   1 54.250928 14.276560 51.395616
7719   1 54.250928 14.276560 54.250928
7720   1 54.250928 17.131872  0.000000
7721   1 54.250928 17.131872  2.855312
7722   1 54.250928 17.131872  5.710624
7723   1 54.250928 17.131872  8.565936
7724   1 54.250928 17.131872 11.421248
7725   1 54.250928 17.131872 14.276560
7726   1 54.250928 17.131872 17.131872
7727   1 54.250928 17.131872 19.987184
7728   1 54.250928 17.131872 22.842496
7729   1 54.250928 17.131872 25.697808
7730   1 54.250928 17.131872 28.553120
7731   1 54.250928 17.131872 31.408432
7732   1 54.250928 17.131872 34.263744
7733   1 54.250928 17.131872 37.119056
7734   1 54.250928 17.131872 39.974368
7735   1 54.250928 17.131872 42.829680
7736   1 54.250928 17.131872 45.684992
7737   1 54.250928 17.131872 48.540304
7738   1 54.250928 17.131872 51.395616
7739   1 54.250928 17.131872 54.250928
7740   1 54.250928 19.987184  0.000000
7741   1 54.250928 19.987184  2.855312
7742   1 54.250928 19.987184  5.710624
7743   1 54.250928 19.987184  8.565936
7744   1 54.250928 19.987184 11.421248
7745   1 54.250928 19.987184 14.276560
7746   1 54.250928 19.987184 17.131872
7747   1 54.250928 19.987184 19.987184
7748   1 54.250928 19.987184 22.842496
7749   1 54.250928 19.987184 25.697808
7750   1 54.250928 19.987184 28.553120
7751   1 54.250928 19.987184 31.408432
7752   1 54.250928 19.987184 34.263744
7753   1 54.250928 19.987184 37.119056
7754   1 54.250928 19.987184 39.974368
7755   1 54.250928 19.987184 42.829680
7756   1 54.250928 19.987184 45.684992
7757   1 54.250928 19.987184 48.540304
7758   1 54.250928 19.987184 51.395616
7759   1 54.250928 19.987184 54.250928
7760   1 54.250928 22.842496  0.000000
7761   1 54.250928 22.842496  2.855312
7762   1 54.250928 22.842496  5.710624
7763   1 54.250928 22.842496  8.565936
7764   1 54.250928 22.842496 11.421248
7765   1 54.250928 22.842496 14.276560
7766   1 54.250928 22.842496 17.131872
7767   1 54.250928 22.842496 19.987184
7768   1 54.250928 22.842496 22.842496
7769   1 54.250928 22.842496 25.697808
7770   1 54.250928 22.842496 28.553120
7771   1 54.250928 22.842496 31.408432
7772   1 54.250928 22.842496 34.263744
7773   1 54.250928 22.842496 37.119056
7774   1 54.250928 22.842496 39.974368
7775   1 54.250928 22.842496 42.829680
7776   1 54.250928 22.842496 45.684992
7777   1 54.250928 22.842496 48.540304
7778   1 54.250928 22.842496 51.395616
7779   1 54.250928 22.842496 54.250928
7780   1 54.250928 25.697808  0.000000
7781   1 54.250928 25.697808  2.855312
7782   1 54.250928 25.697808  5.710624
7783   1 54.250928 25.697808  8.565936
7784   1 54.250928 25.697808 11.421248
7785   1 54.250928 25.697808 14.276560
7786   1 54.250928 25.697808 17.131872
7787   1 54.250928 25.697808 19.987184
7788   1 54.250928 25.697808 22.842496
7789   1 54.250928 25.697808 25.697808
7790   1 54.250928 25.697808 28.553120
7791   1 54.250928 25.697808 31.408432
7792   1 54.250928 25.697808 34.263744
7793   1 54.250928 25.697808 37.119056
7794   1 54.250928 25.697808 39.974368
7795   1 54.250928 25.697808 42.829680
7796   1 54.250928 25.697808 45.684992
7797   1 54.250928 25.697808 48.540304
7798   1 54.250928 25.697808 51.395616
7799   1 54.250928 25.697808 54.250928
7800   1 54.250928 28.553120  0.000000
7801   1 54.250928 28.553120  2.855312
7802   1 54.250928 28.553120  5.710624
7803   1 54.250928 28.553120  8.565936
7804   1 54.250928 28.553120 11.421248
7805   1 54.250928 28.553120 14.276560
7806   1 54.250928 28.553120 17.131872
7807   1 54.250928 28.553120 19.987184
7808   1 54.250928 28.553120 22.842496
7809   1 54.250928 28.553120 25.697808
7810   1 54.250928 28.553120 28.553120
7811   1 54.250928 28.553120 31.408432
7812   1 54.250928 28.553120 34.263744
7813   1 54.250928 28.553120 37.119056
7814   1 54.250928 28.553120 39.974368
7815   1 54.250928 28.553120 42.829680
7816   1 54.250928 28.553120 45.684992
7817   1 54.250928 28.553120 48.540304
7818   1 54.250928 28.553120 51.395616
7819   1 54.250928 28.553120 54.250928
7820   1 54.250928 31.408432  0.000000
7821   1 54.250928 31.408432  2.855312
7822   1 54.250928 31.408432  5.710624
7823   1 54.250928 31.408432  8.565936
7824   1 54.250928 31.408432 11.421248
7825   1 54.250928 31.408432 14.276560
7826   1 54.250928 31.408432 17.131872
7827   1 54.250928 31.408432 19.987184
7828   1 54.250928 31.408432 22.842496
7829   1 54.250928 31.408432 25.697808
7830   1 54.250928 31.408432 28.553120
7831   1 54.250928 31.408432 31.408432
7832   1 54.250928 31.408432 34.263744
7833   1 54.250928 31.408432 37.119056
7834   1 54.250928 31.408432 39.974368
7835   1 54.250928 31.408432 42.829680
7836   1 54.250928 31.408432 45.684992
7837   1 54.250928 31.408432 48.540304
7838   1 54.250928 31.408432 51.395616
7839   1 54.250928 31.408432 54.250928
7840   1 54.250928 34.263744  0.000000
7841   1 54.250928 34.263744  2.855312
7842   1 54.250928 34.263744  5.710624
7843   1 54.250928 34.263744  8.565936
7844   1 54.250928 34.263744 11.421248
7845   1 54.250928 34.263744 14.276560
7846   1 54.250928 34.263744 17.131872
7847   1 54.250928 34.263744 19.987184
7848   1 54.250928 34.263744 22.842496
7849   1 54.250928 34.263744 25.697808
7850   1 54.250928 34.263744 28.553120
7851   1 54.250928 34.263744 31.408432
7852   1 54.250928 34.263744 34.263744
7853   1 54.250928 34.263744 37.119056
7854   1 54.250928 34.263744 39.974368
7855   1 54.250928 34.263744 42.829680
7856   1 54.250928 34.263744 45.684992
7857   1 54.250928 34.263744 48.540304
7858   1 54.250928 34.263744 51.395616
7859   1 54.250928 34.263744 54.250928
7860   1 54.250928 37.119056  0.000000
7861   1 54.250928 37.119056  2.855312
7862   1 54.250928 37.119056  5.710624
7863   1 54.250928 37.119056  8.565936
7864   1 54.250928 37.119056 11.421248
7865   1 54.250928 37.119056 14.276560
7866   1 54.250928 37.119056 17.131872
7867   1 54.250928 37.119056 19.987184
7868   1 54.250928 37.119056 22.842496
7869   1 54.250928 37.119056 25.697808
7870   1 54.250928 37.119056 28.553120
7871   1 54.250928 37.119056 31.408432
7872   1 54.250928 37.119056 34.263744
7873   1 54.250928 37.119056 37.119056
7874   1 54.250928 37.119056 39.974368
7875   1 54.250928 37.119056 42.829680
7876   1 54.250928 37.119056 45.684992
7877   1 54.250928 37.119056 48.540304
7878   1 54.250928 37.119056 51.395616
7879   1 54.250928 37.119056 54.250928
7880   1 54.250928 39.974368  0.000000
7881   1 54.250928 39.974368  2.855312
7882   1 54.250928 39.974368  5.710624
7883   1 54.250928 39.974368  8.565936
7884   1 54.250928 39.974368 11.421248
7885   1 54.250928 39.974368 14.276560
7886   1 54.250928 39.974368 17.131872
7887   1 54.250928 39.974368 19.987184
7888   1 54.250928 39.974368 22.842496
7889   1 54.250928 39.974368 25.697808
7890   1 54.250928 39.974368 28.553120
7891   1 54.250928 39.974368 31.408432
7892   1 54.250928 39.974368 34.263744
7893   1 54.250928 39.974368 37.119056
7894   1 54.250928 39.974368 39.974368
7895   1 54.250928 39.974368 42.829680
7896   1 54.250928 39.974368 45.684992
7897   1 54.250928 39.974368 48.540304
7898   1 54.250928 39.974368 51.395616
7899   1 54.250928 39.974368 54.250928
7900   1 54.250928 42.829680  0.000000
7901   1 54.250928 42.829680  2.855312
7902   1 54.250928 42.829680  5.710624
7903   1 54.250928 42.829680  8.565936
7904   1 54.250928 42.829680 11.421248
7905   1 54.250928 42.829680 14.276560
7906   1 54.250928 42.829680 17.131872
7907   1 54.250928 42.829680 19.987184
7908   1 54.250928 42.829680 22.842496
7909   1 54.250928 42.829680 25.697808
7910   1 54.250928 42.829680 28.553120
7911   1 54.250928 42.829680 31.408432
7912   1 54.250928 42.829680 34.263744
7913   1 54.250928 42.829680 37.119056
7914   1 54.250928 42.829680 39.974368
7915   1 54.250928 42.829680 42.829680
7916   1 54.250928 42.829680 45.684992
7917   1 54.250928 42.829680 48.540304
7918   1 54.250928 42.829680 51.395616
7919   1 54.250928 42.829680 54.250928
7920   1 54.250928 45.684992  0.000000
7921   1 54.250928 45.684992  2.855312
7922   1 54.250928 45.684992  5.710624
7923   1 54.250928 45.684992  8.565936
7924   1 54.250928 45.684992 11.421248
7925   1 54.250928 45.684992 14.276560
7926   1 54.250928 45.684992 17.131872
7927   1 54.250928 45.684992 19.987184
7928   1 54.250928 45.684992 22.842496
7929   1 54.250928 45.684992 25.697808
7930   1 54.250928 45.684992 28.553120
7931   1 54.250928 45.684992 31.408432
7932   1 54.250928 45.684992 34.263744
7933   1 54.250928 45.684992 37.119056
7934   1 54.250928 45.684992 39.974368
7935   1 54.250928 45.684992 42.829680
7936   1 54.250928 45.684992 45.684992
7937   1 54.250928 45.684992 48.540304
7938   1 54.250928 45.684992 51.395616
7939   1 54.250928 45.684992 54.250928
7940   1 54.250928 48.540304  0.000000
7941   1 54.250928 48.540304  2.855312
7942   1 54.250928 48.540304  5.710624
7943   1 54.250928 48.540304  8.565936
7944   1 54.250928 48.540304 11.421248
7945   1 54.250928 48.540304 14.276560
7946   1 54.250928 48.540304 17.131872
7947   1 54.250928 48.540304 19.987184
7948   1 54.250928 48.540304 22.842496
7949   1 54.250928 48.540304 25.697808
7950   1 54.250928 48.540304 28.553120
7951   1 54.250928 48.540304 31.408432
7952   1 54.250928 48.540304 34.263744
7953   1 54.250928 48.540304 37.119056
7954   1 54.250928 48.540304 39.974368
7955   1 54.250928 48.540304 42.829680
7956   1 54.250928 48.540304 45.684992
7957   1 54.250928 48.540304 48.540304
7958   1 54.250928 48.540304 51.395616
7959   1 54.250928 48.540304 54.250928
7960   1 54.250928 51.395616  0.000000
7961   1 54.250928 51.395616  2.855312
7962   1 54.250928 51.395616  5.710624
7963   1 54.250928 51.395616  8.565936
7964   1 54.250928 51.395616 11.421248
7965   1 54.250928 51.395616 14.276560
7966   1 54.250928 51.395616 17.131872
7967   1 54.250928 51.395616 19.987184
7968   1 54.250928 51.395616 22.842496
7969   1 54.250928 51.395616 25.697808
7970   1 54.250928 51.395616 28.553120
7971   1 54.250928 51.395616 31.408432
7972   1 54.250928 51.395616 34.263744
7973   1 54.250928 51.395616 37.119056
7974   1 54.250928 51.395616 39.974368
7975   1 54.250928 51.395616 42.829680
7976   1 54.250928 51.395616 45.684992
7977   1 54.250928 51.395616 48.540304
7978   1 54.250928 51.395616 51.395616
7979   1 54.250928 51.395616 54.250928
7980   1 54.250928 54.250928  0.000000
7981   1 54.250928 54.250928  2.855312
7982   1 54.250928 54.250928  5.710624
7983   1 54.250928 54.250928  8.565936
7984   1 54.250928 54.250928 11.421248
7985   1 54.250928 54.250928 14.276560
7986   1 54.250928 54.250928 17.131872
7987   1 54.250928 54.250928 19.987184
7988   1 54.250928 54.250928 22.842496
7989   1 54.250928 54.250928 25.697808
7990   1 54.250928 54.250928 28.553120
7991   1 54.250928 54.250928 31.408432
7992   1 54.250928 54.250928 34.263744
7993   1 54.250928 54.250928 37.119056
7994   1 54.250928 54.250928 39.974368
7995   1 54.250928 54.250928 42.829680
7996   1 54.250928 54.250928 45.684992
7997   1 54.250928 54.250928 48.540304
7998   1 54.250928 54.250928 51.395616
7999   1 54.250928 54.250928 54.250928
8000   1  1.427656  1.427656  1.427656
8001   1  1.427656  1.427656  4.282968
8002   1  1.427656  1.427656  7.138280
8003   1  1.427656  1.427656  9.993592
8004   1  1.427656  1.427656 12.848904
8005   1  1.427656  1.427656 15.704216
8006   1  1.427656  1.427656 18.559528
8007   1  1.427656  1.427656 21.414840
8008   1  1.427656  1.427656 24.270152
8009   1  1.427656  1.427656 27.125464
8010   1  1.427656  1.427656 29.980776
8011   1  1.427656  1.427656 32.836088
8012   1  1.427656  1.427656 35.691400
8013   1  1.427656  1.427656 38.546712
8014   1  1.427656  1.427656 41.402024
8015   1  1.427656  1.427656 44.257336
8016   1  1.427656  1.427656 47.112648
8017   1  1.427656  1.427656 49.967960
8018   1  1.427656  1.427656 52.823272
8019   1  1.427656  1.427656 55.678584
8020   1  1.427656  4.282968  1.427656
8021   1  1.427656  4.282968  4.282968
8022   1  1.427656  4.282968  7.138280
8023   1  1.427656  4.282968  9.993592
8024   1  1.427656  4.282968 12.848904
8025   1  1.427656  4.282968 15.704216
8026   1  1.427656  4.282968 18.559528
8027   1  1.427656  4.282968 21.414840
8028   1  1.427656  4.282968 24.270152
8029   1  1.427656  4.282968 27.125464
8030   1  1.427656  4.282968 29.980776
8031   1  1.427656  4.282968 32.836088
8032   1  1.427656  4.282968 35.691400
8033   1  1.427656  4.282968 38.546712
8034   1  1.427656  4.282968 41.402024
8035   1  1.427656  4.282968 44.257336
8036   1  1.427656  4.282968 47.112648
8037   1  1.427656  4.282968 49.967960
8038   1  1.427656  4.282968 52.823272
8039   1  1.427656  4.282968 55.678584
8040   1  1.427656  7.138280  1.427656
8041   1  1.427656  7.138280  4.282968
8042   1  1.427656  7.138280  7.138280
8043   1  1.427656  7.138280  9.993592
8044   1  1.427656  7.138280 12.848904
8045   1  1.427656  7.138280 15.704216
8046   1  1.427656  7.138280 18.559528
8047   1  1.427656  7.138280 21.414840
8048   1  1.427656  7.138280 24.270152
8049   1  1.427656  7.138280 27.125464
8050   1  1.427656  7.138280 29.980776
8051   1  1.427656  7.138280 32.836088
8052   1  1.427656  7.138280 35.691400
8053   1  1.427656  7.138280 38.546712
8054   1  1.427656  7.138280 41.402024
8055   1  1.427656  7.138280 44.257336
8056   1  1.427656  7.138280 47.112648
8057   1  1.427656  7.138280 49.967960
8058   1  1.427656  7.138280 52.823272
8059   1  1.427656  7.138280 55.678584
8060   1  1.427656  9.993592  1.427656
8061   1  1.427656  9.993592  4.282968
8062   1  1.427656  9.993592  7.138280
8063   1  1.427656  9.993592  9.993592
8064   1  1.427656  9.993592 12.848904
8065   1  1.427656  9.993592 15.704216
8066   1  1.427656  9.993592 18.559528
8067   1  1.427656  9.993592 21.414840
8068   1  1.427656  9.993592 24.270152
8069   1  1.427656  9.993592 27.125464
8070   1  1.427656  9.993592 29.980776
8071   1  1.427656  9.993592 32.836088
8072   1  1.427656  9.993592 35.691400
8073   1  1.427656  9.993592 38.546712
8074   1  1.427656  9.993592 41.402024
8075   1  1.427656  9.993592 44.257336
8076   1  1.427656  9.993592 47.112648
8077   1  1.427656  9.993592 49.967960
8078   1  1.427656  9.993592 52.823272
8079   1  1.427656  9.993592 55.678584
8080   1  1.427656 12.848904  1.427656
8081   1  1.427656 12.848904  4.282968
8082   1  1.427656 12.848904  7.138280
8083   1  1.427656 12.848904  9.993592
8084   1  1.427656 12.848904 12.848904
8085   1  1.427656 12.848904 15.704216
8086   1  1.427656 12.848904 18.559528
8087   1  1.427656 12.848904 21.414840
8088   1  1.427656 12.848904 24.270152
8089   1  1.427656 12.848904 27.125464
8090   1  1.427656 12.848904 29.980776
8091   1  1.427656 12.848904 32.836088
8092   1  1.427656 12.848904 35.691400
8093   1  1.427656 12.848904 38.546712
8094   1  1.427656 12.848904 41.402024
8095   1  1.427656 12.848904 44.257336
8096   1  1.427656 12.848904 47.112648
8097   1  1.427656 12.848904 49.967960
8098   1  1.427656 12.848904 52.823272
8099   1  1.427656 12.848904 55.678584
8100   1  1.427656 15.704216  1.427656
8101   1  1.427656 15.704216  4.282968
8102   1  1.427656 15.704216  7.138280
8103   1  1.427656 15.704216  9.993592
8104   1  1.427656 15.704216 12.848904
8105   1  1.427656 15.704216 15.704216
8106   1  1.427656 15.704216 18.559528
8107   1  1.427656 15.704216 21.414840
8108   1  1.427656 15.704216 24.270152
8109   1  1.427656 15.704216 27.125464
8110   1  1.427656 15.704216 29.980776
8111   1  1.427656 15.704216 32.836088
8112   1  1.427656 15.704216 35.691400
8113   1  1.427656 15.704216 38.546712
8114   1  1.427656 15.704216 41.402024
8115   1  1.427656 15.704216 44.257336
8116   1  1.427656 15.704216 47.112648
8117   1  1.427656 15.704216 49.967960
8118   1  1.427656 15.704216 52.823272
8119   1  1.427656 15.704216 55.678584
8120   1  1.427656 18.559528  1.427656
8121   1  1.427656 18.559528  4.282968
8122   1  1.427656 18.559528  7.138280
8123   1  1.427656 18.559528  9.993592
8124   1  1.427656 18.559528 12.848904
8125   1  1.427656 18.559528 15.704216
8126   1  1.427656 18.559528 18.559528
8127   1  1.427656 18.559528 21.414840
8128   1  1.427656 18.559528 24.270152
8129   1  1.427656 18.559528 27.125464
8130   1  1.427656 18.559528 29.980776
8131   1  1.427656 18.559528 32.836088
8132   1  1.427656 18.559528 35.691400
8133   1  1.427656 18.559528 38.546712
8134   1  1.427656 18.559528 41.402024
8135   1  1.427656 18.559528 44.257336
8136   1  1.427656 18.559528 47.112648
8137   1  1.427656 18.559528 49.967960
8138   1  1.427656 18.559528 52.823272
8139   1  1.427656 18.559528 55.678584
8140   1  1.427656 21.414840  1.427656
8141   1  1.427656 21.414840  4.282968
8142   1  1.427656 21.414840  7.138280
8143   1  1.427656 21.414840  9.993592
8144   1  1.427656 21.414840 12.848904
8145   1  1.427656 21.414840 15.704216
8146   1  1.427656 21.414840 18.559528
8147   1  1.427656 21.414840 21.414840
8148   1  1.427656 21.414840 24.270152
8149   1  1.427656 21.414840 27.125464
8150   1  1.427656 21.414840 29.980776
8151   1  1.427656 21.414840 32.836088
8152   1  1.427656 21.414840 35.691400
8153   1  1.427656 21.414840 38.546712
8154   1  1.427656 21.414840 41.402024
8155   1  1.427656 21.414840 44.257336
8156   1  1.427656 21.414840 47.112648
8157   1  1.427656 21.414840 49.967960
8158   1  1.427656 21.414840 52.823272
8159   1  1.427656 21.414840 55.678584
8160   1  1.427656 24.270152  1.427656
8161   1  1.427656 24.270152  4.282968
8162   1  1.427656 24.270152  7.138280
8163   1  1.427656 24.270152  9.993592
8164   1  1.427656 24.270152 12.848904
8165   1  1.427656 24.270152 15.704216
8166   1  1.427656 24.270152 18.559528
8167   1  1.427656 24.270152 21.414840
8168   1  1.427656 24.270152 24.270152
8169   1  1.427656 24.270152 27.125464
8170   1  1.427656 24.270152 29.980776
8171   1  1.427656 24.270152 32.836088
8172   1  1.427656 24.270152 35.691400
8173   1  1.427656 24.270152 38.546712
8174   1  1.427656 24.270152 41.402024
8175   1  1.427656 24.270152 44.257336
8176   1  1.427656 24.270152 47.112648
8177   1  1.427656 24.270152 49.967960
8178   1  1.427656 24.270152 52.823272
8179   1  1.427656 24.270152 55.678584
8180   1  1.427656 27.125464  1.427656
8181   1  1.427656 27.125464  4.282968
8182   1  1.427656 27.125464  7.138280
8183   1  1.427656 27.125464  9.993592
8184   1  1.427656 27.125464 12.848904
8185   1  1.427656 27.125464 15.704216
8186   1  1.427656 27.125464 18.559528
8187   1  1.427656 27.125464 21.414840
8188   1  1.427656 27.125464 24.270152
8189   1  1.427656 27.125464 27.125464
8190   1  1.427656 27.125464 29.980776
8191   1  1.427656 27.125464 32.836088
8192   1  1.427656 27.125464 35.691400
8193   1  1.427656 27.125464 38.546712
8194   1  1.427656 27.125464 41.402024
8195   1  1.427656 27.125464 44.257336
8196   1  1.427656 27.125464 47.112648
8197   1  1.427656 27.125464 49.967960
8198   1  1.427656 27.125464 52.823272
8199   1  1.427656 27.125464 55.678584
8200   1  1.427656 29.980776  1.427656
8201   1  1.427656 29.980776  4.282968
8202   1  1.427656 29.980776  7.138280
8203   1  1.427656 29.980776  9.993592
8204   1  1.427656 29.980776 12.848904
8205   1  1.427656 29.980776 15.704216
8206   1  1.427656 29.980776 18.559528
8207   1  1.427656 29.980776 21.414840
8208   1  1.427656 29.980776 24.270152
8209   1  1.427656 29.980776 27.125464
8210   1  1.427656 29.980776 29.980776
8211   1  1.427656 29.980776 32.836088
8212   1  1.427656 29.980776 35.691400
8213   1  1.427656 29.980776 38.546712
8214   1  1.427656 29.980776 41.402024
8215   1  1.427656 29.980776 44.257336
8216   1  1.427656 29.980776 47.112648
8217   1  1.427656 29.980776 49.967960
8218   1  1.427656 29.980776 52.823272
8219   1  1.427656 29.980776 55.678584
8220   1  1.427656 32.836088  1.427656
8221   1  1.427656 32.836088  4.282968
8222   1  1.427656 32.836088  7.138280
8223   1  1.427656 32.836088  9.993592
8224   1  1.427656 32.836088 12.848904
8225   1  1.427656 32.836088 15.704216
8226   1  1.427656 32.836088 18.559528
8227   1  1.427656 32.836088 21.414840
8228   1  1.427656 32.836088 24.270152
8229   1  1.427656 32.836088 27.125464
8230   1  1.427656 32.836088 29.980776
8231   1  1.427656 32.836088 32.836088
8232   1  1.427656 32.836088 35.691400
8233   1  1.427656 32.836088 38.546712
8234   1  1.427656 32.836088 41.402024
8235   1  1.427656 32.836088 44.257336
8236   1  1.427656 32.836088 47.112648
8237   1  1.427656 32.836088 49.967960
8238   1  1.427656 32.836088 52.823272
8239   1  1.427656 32.836088 55.678584
8240   1  1.427656 35.691400  1.427656
8241   1  1.427656 35.691400  4.282968
8242   1  1.427656 35.691400  7.138280
8243   1  1.427656 35.691400  9.993592
8244   1  1.427656 35.691400 12.848904
8245   1  1.427656 35.691400 15.704216
8246   1  1.427656 35.691400 18.559528
8247   1  1.427656 35.691400 21.414840
8248   1  1.427656 35.691400 24.270152
8249   1  1.427656 35.691400 27.125464
8250   1  1.427656 35.691400 29.980776
8251   1  1.427656 35.691400 32.836088
8252   1  1.427656 35.691400 35.691400
8253   1  1.427656 35.691400 38.546712
8254   1  1.427656 35.691400 41.402024
8255   1  1.427656 35.691400 44.257336
8256   1  1.427656 35.691400 47.112648
8257   1  1.427656 35.691400 49.967960
8258   1  1.427656 35.691400 52.823272
8259   1  1.427656 35.691400 55.678584
8260   1  1.427656 38.546712  1.427656
8261   1  1.427656 38.546712  4.282968
8262   1  1.427656 38.546712  7.138280
8263   1  1.427656 38.546712  9.993592
8264   1  1.427656 38.546712 12.848904
8265   1  1.427656 38.546712 15.704216
8266   1  1.427656 38.546712 18.559528
8267   1  1.427656 38.546712 21.414840
8268   1  1.427656 38.546712 24.270152
8269   1  1.427656 38.546712 27.125464
8270   1  1.427656 38.546712 29.980776
8271   1  1.427656 38.546712 32.836088
8272   1  1.427656 38.546712 35.691400
8273   1  1.427656 38.546712 38.546712
8274   1  1.427656 38.546712 41.402024
8275   1  1.427656 38.546712 44.257336
8276   1  1.427656 38.546712 47.112648
8277   1  1.427656 38.546712 49.967960
8278   1  1.427656 38.546712 52.823272
8279   1  1.427656 38.546712 55.678584
8280   1  1.427656 41.402024  1.427656
8281   1  1.427656 41.402024  4.282968
8282   1  1.427656 41.402024  7.138280
8283   1  1.427656 41.402024  9.993592
8284   1  1.427656 41.402024 12.848904
8285   1  1.427656 41.402024 15.704216
8286   1  1.427656 41.402024 18.559528
8287   1  1.427656 41.402024 21.414840
8288   1  1.427656 41.402024 24.270152
8289   1  1.427656 41.402024 27.125464
8290   1  1.427656 41.402024 29.980776
8291   1  1.427656 41.402024 32.836088
8292   1  1.427656 41.402024 35.691400
8293   1  1.427656 41.402024 38.546712
8294   1  1.427656 41.402024 41.402024
8295   1  1.427656 41.402024 44.257336
8296   1  1.427656 41.402024 47.112648
8297   1  1.427656 41.402024 49.967960
8298   1  1.427656 41.402024 52.823272
8299   1  1.427656 41.402024 55.678584
8300   1  1.427656 44.257336  1.427656
8301   1  1.427656 44.257336  4.282968
8302   1  1.427656 44.257336  7.138280
8303   1  1.427656 44.257336  9.993592
8304   1  1.427656 44.257336 12.848904
8305   1  1.427656 44.257336 15.704216
8306   1  1.427656 44.257336 18.559528
8307   1  1.427656 44.257336 21.414840
8308   1  1.427656 44.257336 24.270152
8309   1  1.427656 44.257336 27.125464
8310   1  1.427656 44.257336 29.980776
8311   1  1.427656 44.257336 32.836088
8312   1  1.427656 44.257336 35.691400
8313   1  1.427656 44.257336 38.546712
8314   1  1.427656 44.257336 41.402024
8315   1  1.427656 44.257336 44.257336
8316   1  1.427656 44.257336 47.112648
8317   1  1.427656 44.257336 49.967960
8318   1  1.427656 44.257336 52.823272
8319   1  1.427656 44.257336 55.678584
8320   1  1.427656 47.112648  1.427656
8321   1  1.427656 47.112648  4.282968
8322   1  1.427656 47.112648  7.138280
8323   1  1.427656 47.112648  9.993592
8324   1  1.427656 47.112648 12.848904
8325   1  1.427656 47.112648 15.704216
8326   1  1.427656 47.112648 18.559528
8327   1  1.427656 47.112648 21.414840
8328   1  1.427656 47.112648 24.270152
8329   1  1.427656 47.112648 27.125464
8330   1  1.427656 47.112648 29.980776
8331   1  1.427656 47.112648 32.836088
8332   1  1.427656 47.112648 35.691400
8333   1  1.427656 47.112648 38.546712
8334   1  1.427656 47.112648 41.402024
8335   1  1.427656 47.112648 44.257336
8336   1  1.427656 47.112648 47.112648
8337   1  1.427656 47.112648 49.967960
8338   1  1.427656 47.112648 52.823272
8339   1  1.427656 47.112648 55.678584
8340   1  1.427656 49.967960  1.427656
8341   1  1.427656 49.967960  4.282968
8342   1  1.427656 49.967960  7.138280
8343   1  1.427656 49.967960  9.993592
8344   1  1.427656 49.967960 12.848904
8345   1  1.427656 49.967960 15.704216
8346   1  1.427656 49.967960 18.559528
8347   1  1.427656 49.967960 21.414840
8348   1  1.427656 49.967960 24.270152
8349   1  1.427656 49.967960 27.125464
8350   1  1.427656 49.967960 29.980776
8351   1  1.427656 49.967960 32.836088
8352   1  1.427656 49.967960 35.691400
8353   1  1.427656 49.967960 38.546712
8354   1  1.427656 49.967960 41.402024
8355   1  1.427656 49.967960 44.257336
8356   1  1.427656 49.967960 47.112648
8357   1  1.427656 49.967960 49.967960
8358   1  1.427656 49.967960 52.823272
8359   1  1.427656 49.967960 55.678584
8360   1  1.427656 52.823272  1.427656
8361   1  1.427656 52.823272  4.282968
8362   1  1.427656 52.823272  7.138280
8363   1  1.427656 52.823272  9.993592
8364   1  1.427656 52.823272 12.848904
8365   1  1.427656 52.823272 15.704216
8366   1  1.427656 52.823272 18.559528
8367   1  1.427656 52.823272 21.414840
8368   1  1.427656 52.823272 24.270152
8369   1  1.427656 52.823272 27.125464
8370   1  1.427656 52.823272 29.980776
8371   1  1.427656 52.823272 32.836088
8372   1  1.427656 52.823272 35.691400
8373   1  1.427656 52.823272 38.546712
8374   1  1.427656 52.823272 41.402024
8375   1  1.427656 52.823272 44.257336
8376   1  1.427656 52.823272 47.112648
8377   1  1.427656 52.823272 49.967960
8378   1  1.427656 52.823272 52.823272
8379   1  1.427656 52.823272 55.678584
8380   1  1.427656 55.678584  1.427656
8381   1  1.427656 55.678584  4.282968
8382   1  1.427656 55.678584  7.138280
8383   1  1.427656 55.678584  9.993592
8384   1  1.427656 55.678584 12.848904
8385   1  1.427656 55.678584 15.704216
8386   1  1.427656 55.678584 18.559528
8387   1  1.427656 55.678584 21.414840
8388   1  1.427656 55.678584 24.270152
8389   1  1.427656 55.678584 27.125464
8390   1  1.427656 55.678584 29.980776
8391   1  1.427656 55.678584 32.836088
8392   1  1.427656 55.678584 35.691400
8393   1  1.427656 55.678584 38.546712
8394   1  1.427656 55.678584 41.402024
8395   1  1.427656 55.678584 44.257336
8396   1  1.427656 55.678584 47.112648
8397   1  1.427656 55.678584 49.967960
8398   1  1.427656 55.678584 52.823272
8399   1  1.427656 55.678584 55.678584
8400   1  4.282968  1.427656  1.427656
8401   1  4.282968  1.427656  4.282968
8402   1  4.282968  1.427656  7.138280
8403   1  4.282968  1.427656  9.993592
8404   1  4.282968  1.427656 12.848904
8405   1  4.282968  1.427656 15.704216
8406   1  4.282968  1.427656 18.559528
8407   1  4.282968  1.427656 21.414840
8408   1  4.282968  1.427656 24.270152
8409   1  4.282968  1.427656 27.125464
8410   1  4.282968  1.427656 29.980776
8411   1  4.282968  1.427656 32.836088
8412   1  4.282968  1.427656 35.691400
8413   1  4.282968  1.427656 38.546712
8414   1  4.282968  1.427656 41.402024
8415   1  4.282968  1.427656 44.257336
8416   1  4.282968  1.427656 47.112648
8417   1  4.282968  1.427656 49.967960
8418   1  4.282968  1.427656 52.823272
8419   1  4.282968  1.427656 55.678584
8420   1  4.282968  4.282968  1.427656
8421   1  4.282968  4.282968  4.282968
8422   1  4.282968  4.282968  7.138280
8423   1  4.282968  4.282968  9.993592
8424   1  4.282968  4.282968 12.848904
8425   1  4.282968  4.282968 15.704216
8426   1  4.282968  4.282968 18.559528
8427   1  4.282968  4.282968 21.414840
8428   1  4.282968  4.282968 24.270152
8429   1  4.282968  4.282968 27.125464
8430   1  4.282968  4.282968 29.980776
8431   1  4.282968  4.282968 32.836088
8432   1  4.282968  4.282968 35.691400
8433   1  4.282968  4.282968 38.546712
8434   1  4.282968  4.282968 41.402024
8435   1  4.282968  4.282968 44.257336
8436   1  4.282968  4.282968 47.112648
8437   1  4.282968  4.282968 49.967960
8438   1  4.282968  4.282968 52.823272
8439   1  4.282968  4.282968 55.678584
8440   1  4.282968  7.138280  1.427656
8441   1  4.282968  7.138280  4.282968
8442   1  4.282968  7.138280  7.138280
8443   1  4.282968  7.138280  9.993592
8444   1  4.282968  7.138280 12.848904
8445   1  4.282968  7.138280 15.704216
8446   1  4.282968  7.138280 18.559528
8447   1  4.282968  7.138280 21.414840
8448   1  4.282968  7.138280 24.270152
8449   1  4.282968  7.138280 27.125464
8450   1  4.282968  7.138280 29.980776
8451   1  4.282968  7.138280 32.836088
8452   1  4.282968  7.138280 35.691400
8453   1  4.282968  7.138280 38.546712
8454   1  4.282968  7.138280 41.402024
8455   1  4.282968  7.138280 44.257336
8456   1  4.282968  7.138280 47.112648
8457   1  4.282968  7.138280 49.967960
8458   1  4.282968  7.138280 52.823272
8459   1  4.282968  7.138280 55.678584
8460   1  4.282968  9.993592  1.427656
8461   1  4.282968  9.993592  4.282968
8462   1  4.282968  9.993592  7.138280
8463   1  4.282968  9.993592  9.993592
8464   1  4.282968  9.993592 12.848904
8465   1  4.282968  9.993592 15.704216
8466   1  4.282968  9.993592 18.559528
8467   1  4.282968  9.993592 21.414840
8468   1  4.282968  9.993592 24.270152
8469   1  4.282968  9.993592 27.125464
8470   1  4.282968  9.993592 29.980776
8471   1  4.282968  9.993592 32.836088
8472   1  4.282968  9.993592 35.691400
8473   1  4.282968  9.993592 38.546712
8474   1  4.282968  9.993592 41.402024
8475   1  4.282968  9.993592 44.257336
8476   1  4.282968  9.993592 47.112648
8477   1  4.282968  9.993592 49.967960
8478   1  4.282968  9.993592 52.823272
8479   1  4.282968  9.993592 55.678584
8480   1  4.282968 12.848904  1.427656
8481   1  4.282968 12.848904  4.282968
8482   1  4.282968 12.848904  7.138280
8483   1  4.282968 12.848904  9.993592
8484   1  4.282968 12.848904 12.848904
8485   1  4.282968 12.848904 15.704216
8486   1  4.282968 12.848904 18.559528
8487   1  4.282968 12.848904 21.414840
8488   1  4.282968 12.848904 24.270152
8489   1  4.282968 12.848904 27.125464
8490   1  4.282968 12.848904 29.980776
8491   1  4.282968 12.848904 32.836088
8492   1  4.282968 12.848904 35.691400
8493   1  4.282968 12.848904 38.546712
8494   1  4.282968 12.848904 41.402024
8495   1  4.282968 12.848904 44.257336
8496   1  4.282968 12.848904 47.112648
8497   1  4.282968 12.848904 49.967960
8498   1  4.282968 12.848904 52.823272
8499   1  4.282968 12.848904 55.678584
8500   1  4.282968 15.704216  1.427656
8501   1  4.282968 15.704216  4.282968
8502   1  4.282968 15.704216  7.138280
8503   1  4.282968 15.704216  9.993592
8504   1  4.282968 15.704216 12.848904
8505   1  4.282968 15.704216 15.704216
8506   1  4.282968 15.704216 18.559528
8507   1  4.282968 15.704216 21.414840
8508   1  4.282968 15.704216 24.270152
8509   1  4.282968 15.704216 27.125464
8510   1  4.282968 15.704216 29.980776
8511   1  4.282968 15.704216 32.836088
8512   1  4.282968 15.704216 35.691400
8513   1  4.282968 15.704216 38.546712
8514   1  4.282968 15.704216 41.402024
8515   1  4.282968 15.704216 44.257336
8516   1  4.282968 15.704216 47.112648
8517   1  4.282968 15.704216 49.967960
8518   1  4.282968 15.704216 52.823272
8519   1  4.282968 15.704216 55.678584
8520   1  4.282968 18.559528  1.427656
8521   1  4.282968 18.559528  4.282968
8522   1  4.282968 18.559528  7.138280
8523   1  4.282968 18.559528  9.993592
8524   1  4.282968 18.559528 12.848904
8525   1  4.282968 18.559528 15.704216
8526   1  4.282968 18.559528 18.559528
8527   1  4.282968 18.559528 21.414840
8528   1  4.282968 18.559528 24.270152
8529   1  4.282968 18.559528 27.125464
8530   1  4.282968 18.559528 29.980776
8531   1  4.282968 18.559528 32.836088
8532   1  4.282968 18.559528 35.691400
8533   1  4.282968 18.559528 38.546712
8534   1  4.282968 18.559528 41.402024
8535   1  4.282968 18.559528 44.257336
8536   1  4.282968 18.559528 47.112648
8537   1  4.282968 18.559528 49.967960
8538   1  4.282968 18.559528 52.823272
8539   1  4.282968 18.559528 55.678584
8540   1  4.282968 21.414840  1.427656
8541   1  4.282968 21.414840  4.282968
8542   1  4.282968 21.414840  7.138280
8543   1  4.282968 21.414840  9.993592
8544   1  4.282968 21.414840 12.848904
8545   1  4.282968 21.414840 15.704216
8546   1  4.282968 21.414840 18.559528
8547   1  4.282968 21.414840 21.414840
8548   1  4.282968 21.414840 24.270152
8549   1  4.282968 21.414840 27.125464
8550   1  4.282968 21.414840 29.980776
8551   1  4.282968 21.414840 32.836088
8552   1  4.282968 21.414840 35.691400
8553   1  4.282968 21.414840 38.546712
8554   1  4.282968 21.414840 41.402024
8555   1  4.282968 21.414840 44.257336
8556   1  4.282968 21.414840 47.112648
8557   1  4.282968 21.414840 49.967960
8558   1  4.282968 21.414840 52.823272
8559   1  4.282968 21.414840 55.678584
8560   1  4.282968 24.270152  1.427656
8561   1  4.282968 24.270152  4.282968
8562   1  4.282968 24.270152  7.138280
8563   1  4.282968 24.270152  9.993592
8564   1  4.282968 24.270152 12.848904
8565   1  4.282968 24.270152 15.704216
8566   1  4.282968 24.270152 18.559528
8567   1  4.282968 24.270152 21.414840
8568   1  4.282968 24.270152 24.270152
8569   1  4.282968 24.270152 27.125464
8570   1  4.282968 24.270152 29.980776
8571   1  4.282968 24.270152 32.836088
8572   1  4.282968 24.270152 35.691400
8573   1  4.282968 24.270152 38.546712
8574   1  4.282968 24.270152 41.402024
8575   1  4.282968 24.270152 44.257336
8576   1  4.282968 24.270152 47.112648
8577   1  4.282968 24.270152 49.967960
8578   1  4.282968 24.270152 52.823272
8579   1  4.282968 24.270152 55.678584
8580   1  4.282968 27.125464  1.427656
8581   1  4.282968 27.125464  4.282968
8582   1  4.282968 27.125464  7.138280
8583   1  4.282968 27.125464  9.993592
8584   1  4.282968 27.125464 12.848904
8585   1  4.282968 27.125464 15.704216
8586   1  4.282968 27.125464 18.559528
8587   1  4.282968 27.125464 21.414840
8588   1  4.282968 27.125464 24.270152
8589   1  4.282968 27.125464 27.125464
8590   1  4.282968 27.125464 29.980776
8591   1  4.282968 27.125464 32.836088
8592   1  4.282968 27.125464 35.691400
8593   1  4.282968 27.125464 38.546712
8594   1  4.282968 27.125464 41.402024
8595   1  4.282968 27.125464 44.257336
8596   1  4.282968 27.125464 47.112648
8597   1  4.282968 27.125464 49.967960
8598   1  4.282968 27.125464 52.823272
8599   1  4.282968 27.125464 55.678584
8600   1  4.282968 29.980776  1.427656
8601   1  4.282968 29.980776  4.282968
8602   1  4.282968 29.980776  7.138280
8603   1  4.282968 29.980776  9.993592
8604   1  4.282968 29.980776 12.848904
8605   1  4.282968 29.980776 15.704216
8606   1  4.282968 29.980776 18.559528
8607   1  4.282968 29.980776 21.414840
8608   1  4.282968 29.980776 24.270152
8609   1  4.282968 29.980776 27.125464
8610   1  4.282968 29.980776 29.980776
8611   1  4.282968 29.980776 32.836088
8612   1  4.282968 29.980776 35.691400
8613   1  4.282968 29.980776 38.546712
8614   1  4.282968 29.980776 41.402024
8615   1  4.282968 29.980776 44.257336
8616   1  4.282968 29.980776 47.112648
8617   1  4.282968 29.980776 49.967960
8618   1  4.282968 29.980776 52.823272
8619   1  4.282968 29.980776 55.678584
8620   1  4.282968 32.836088  1.427656
8621   1  4.282968 32.836088  4.282968
8622   1  4.282968 32.836088  7.138280
8623   1  4.282968 32.836088  9.993592
8624   1  4.282968 32.836088 12.848904
8625   1  4.282968 32.836088 15.704216
8626   1  4.282968 32.836088 18.559528
8627   1  4.282968 32.836088 21.414840
8628   1  4.282968 32.836088 24.270152
8629   1  4.282968 32.836088 27.125464
8630   1  4.282968 32.836088 29.980776
8631   1  4.282968 32.836088 32.836088
8632   1  4.282968 32.836088 35.691400
8633   1  4.282968 32.836088 38.546712
8634   1  4.282968 32.836088 41.402024
8635   1  4.282968 32.836088 44.257336
8636   1  4.282968 32.836088 47.112648
8637   1  4.282968 32.836088 49.967960
8638   1  4.282968 32.836088 52.823272
8639   1  4.282968 32.836088 55.678584
8640   1  4.282968 35.691400  1.427656
8641   1  4.282968 35.691400  4.282968
8642   1  4.282968 35.691400  7.138280
8643   1  4.282968 35.691400  9.993592
8644   1  4.282968 35.691400 12.848904
8645   1  4.282968 35.691400 15.704216
8646   1  4.282968 35.691400 18.559528
8647   1  4.282968 35.691400 21.414840
8648   1  4.282968 35.691400 24.270152
8649   1  4.282968 35.691400 27.125464
8650   1  4.282968 35.691400 29.980776
8651   1  4.282968 35.691400 32.836088
8652   1  4.282968 35.691400 35.691400
8653   1  4.282968 35.691400 38.546712
8654   1  4.282968 35.691400 41.402024
8655   1  4.282968 35.691400 44.257336
8656   1  4.282968 35.691400 47.112648
8657   1  4.282968 35.691400 49.967960
8658   1  4.282968 35.691400 52.823272
8659   1  4.282968 35.691400 55.678584
8660   1  4.282968 38.546712  1.427656
8661   1  4.282968 38.546712  4.282968
8662   1  4.282968 38.546712  7.138280
8663   1  4.282968 38.546712  9.993592
8664   1  4.282968 38.546712 12.848904
8665   1  4.282968 38.546712 15.704216
8666   1  4.282968 38.546712 18.559528
8667   1  4.282968 38.546712 21.414840
8668   1  4.282968 38.546712 24.270152
8669   1  4.282968 38.546712 27.125464
8670   1  4.282968 38.546712 29.980776
8671   1  4.282968 38.546712 32.836088
8672   1  4.282968 38.546712 35.691400
8673   1  4.282968 38.546712 38.546712
8674   1  4.282968 38.546712 41.402024
8675   1  4.282968 38.546712 44.257336
8676   1  4.282968 38.546712 47.112648
8677   1  4.282968 38.546712 49.967960
8678   1  4.282968 38.546712 52.823272
8679   1  4.282968 38.546712 55.678584
8680   1  4.282968 41.402024  1.427656
8681   1  4.282968 41.402024  4.282968
8682   1  4.282968 41.402024  7.138280
8683   1  4.282968 41.402024  9.993592
8684   1  4.282968 41.402024 12.848904
8685   1  4.282968 41.402024 15.704216
8686   1  4.282968 41.402024 18.559528
8687   1  4.282968 41.402024 21.414840
8688   1  4.282968 41.402024 24.270152
8689   1  4.282968 41.402024 27.125464
8690   1  4.282968 41.402024 29.980776
8691   1  4.282968 41.402024 32.836088
8692   1  4.282968 41.402024 35.691400
8693   1  4.282968 41.402024 38.546712
8694   1  4.282968 41.402024 41.402024
8695   1  4.282968 41.402024 44.257336
8696   1  4.282968 41.402024 47.112648
8697   1  4.282968 41.402024 49.967960
8698   1  4.282968 41.402024 52.823272
8699   1  4.282968 41.402024 55.678584
8700   1  4.282968 44.257336  1.427656
8701   1  4.282968 44.257336  4.282968
8702   1  4.282968 44.257336  7.138280
8703   1  4.282968 44.257336  9.993592
8704   1  4.282968 44.257336 12.848904
8705   1  4.282968 44.257336 15.704216
8706   1  4.282968 44.257336 18.559528
8707   1  4.282968 44.257336 21.414840
8708   1  4.282968 44.257336 24.270152
8709   1  4.282968 44.257336 27.125464
8710   1  4.282968 44.257336 29.980776
8711   1  4.282968 44.257336 32.836088
8712   1  4.282968 44.257336 35.691400
8713   1  4.282968 44.257336 38.546712
8714   1  4.282968 44.257336 41.402024
8715   1  4.282968 44.257336 44.257336
8716   1  4.282968 44.257336 47.112648
8717   1  4.282968 44.257336 49.967960
8718   1  4.282968 44.257336 52.823272
8719   1  4.282968 44.257336 55.678584
8720   1  4.282968 47.112648  1.427656
8721   1  4.282968 47.112648  4.282968
8722   1  4.282968 47.112648  7.138280
8723   1  4.282968 47.112648  9.993592
8724   1  4.282968 47.112648 12.848904
8725   1  4.282968 47.112648 15.704216
8726   1  4.282968 47.112648 18.559528
8727   1  4.282968 47.112648 21.414840
8728   1  4.282968 47.112648 24.270152
8729   1  4.282968 47.112648 27.125464
8730   1  4.282968 47.112648 29.980776
8731   1  4.282968 47.112648 32.836088
8732   1  4.282968 47.112648 35.691400
8733   1  4.282968 47.112648 38.546712
8734   1  4.282968 47.112648 41.402024
8735   1  4.282968 47.112648 44.257336
8736   1  4.282968 47.112648 47.112648
8737   1  4.282968 47.112648 49.967960
8738   1  4.282968 47.112648 52.823272
8739   1  4.282968 47.112648 55.678584
8740   1  4.282968 49.967960  1.427656
8741   1  4.282968 49.967960  4.282968
8742   1  4.282968 49.967960  7.138280
8743   1  4.282968 49.967960  9.993592
8744   1  4.282968 49.967960 12.848904
8745   1  4.282968 49.967960 15.704216
8746   1  4.282968 49.967960 18.559528
8747   1  4.282968 49.967960 21.414840
8748   1  4.282968 49.967960 24.270152
8749   1  4.282968 49.967960 27.125464
8750   1  4.282968 49.967960 29.980776
8751   1  4.282968 49.967960 32.836088
8752   1  4.282968 49.967960 35.691400
8753   1  4.282968 49.967960 38.546712
8754   1  4.282968 49.967960 41.402024
8755   1  4.282968 49.967960 44.257336
8756   1  4.282968 49.967960 47.112648
8757   1  4.282968 49.967960 49.967960
8758   1  4.282968 49.967960 52.823272
8759   1  4.282968 49.967960 55.678584
8760   1  4.282968 52.823272  1.427656
8761   1  4.282968 52.823272  4.282968
8762   1  4.282968 52.823272  7.138280
8763   1  4.282968 52.823272  9.993592
8764   1  4.282968 52.823272 12.848904
8765   1  4.282968 52.823272 15.704216
8766   1  4.282968 52.823272 18.559528
8767   1  4.282968 52.823272 21.414840
8768   1  4.282968 52.823272 24.270152
8769   1  4.282968 52.823272 27.125464
8770   1  4.282968 52.823272 29.980776
8771   1  4.282968 52.823272 32.836088
8772   1  4.282968 52.823272 35.691400
8773   1  4.282968 52.823272 38.546712
8774   1  4.282968 52.823272 41.402024
8775   1  4.282968 52.823272 44.257336
8776   1  4.282968 52.823272 47.112648
8777   1  4.282968 52.823272 49.967960
8778   1  4.282968 52.823272 52.823272
8779   1  4.282968 52.823272 55.678584
8780   1  4.282968 55.678584  1.427656
8781   1  4.282968 55.678584  4.282968
8782   1  4.282968 55.678584  7.138280
8783   1  4.282968 55.678584  9.993592
8784   1  4.282968 55.678584 12.848904
8785   1  4.282968 55.678584 15.704216
8786   1  4.282968 55.678584 18.559528
8787   1  4.282968 55.678584 21.414840
8788   1  4.282968 55.678584 24.270152
8789   1  4.282968 55.678584 27.125464
8790   1  4.282968 55.678584 29.980776
8791   1  4.282968 55.678584 32.836088
8792   1  4.282968 55.678584 35.691400
8793   1  4.282968 55.678584 38.546712
8794   1  4.282968 55.678584 41.402024
8795   1  4.282968 55.678584 44.257336
8796   1  4.282968 55.678584 47.112648
8797   1  4.282968 55.678584 49.967960
8798   1  4.282968 55.678584 52.823272
8799   1  4.282968 55.678584 55.678584
8800   1  7.138280  1.427656  1.427656
8801   1  7.138280  1.427656  4.282968
8802   1  7.138280  1.427656  7.138280
8803   1  7.138280  1.427656  9.993592
8804   1  7.138280  1.427656 12.848904
8805   1  7.138280  1.427656 15.704216
8806   1  7.138280  1.427656 18.559528
8807   1  7.138280  1.427656 21.414840
8808   1  7.138280  1.427656 24.270152
8809   1  7.138280  1.427656 27.125464
8810   1  7.138280  1.427656 29.980776
8811   1  7.138280  1.427656 32.836088
8812   1  7.138280  1.427656 35.691400
8813   1  7.138280  1.427656 38.546712
8814   1  7.138280  1.427656 41.402024
8815   1  7.138280  1.427656 44.257336
8816   1  7.138280  1.427656 47.112648
8817   1  7.138280  1.427656 49.967960
8818   1  7.138280  1.427656 52.823272
8819   1  7.138280  1.427656 55.678584
8820   1  7.138280  4.282968  1.427656
8821   1  7.138280  4.282968  4.282968
8822   1  7.138280  4.282968  7.138280
8823   1  7.138280  4.282968  9.993592
8824   1  7.138280  4.282968 12.848904
8825   1  7.138280  4.282968 15.704216
8826   1  7.138280  4.282968 18.559528
8827   1  7.138280  4.282968 21.414840
8828   1  7.138280  4.282968 24.270152
8829   1  7.138280  4.282968 27.125464
8830   1  7.138280  4.282968 29.980776
8831   1  7.138280  4.282968 32.836088
8832   1  7.138280  4.282968 35.691400
8833   1  7.138280  4.282968 38.546712
8834   1  7.138280  4.282968 41.402024
8835   1  7.138280  4.282968 44.257336
8836   1  7.138280  4.282968 47.112648
8837   1  7.138280  4.282968 49.967960
8838   1  7.138280  4.282968 52.823272
8839   1  7.138280  4.282968 55.678584
8840   1  7.138280  7.138280  1.427656
8841   1  7.138280  7.138280  4.282968
8842   1  7.138280  7.138280  7.138280
8843   1  7.138280  7.138280  9.993592
8844   1  7.138280  7.138280 12.848904
8845   1  7.138280  7.138280 15.704216
8846   1  7.138280  7.138280 18.559528
8847   1  7.138280  7.138280 21.414840
8848   1  7.138280  7.138280 24.270152
8849   1  7.138280  7.138280 27.125464
8850   1  7.138280  7.138280 29.980776
8851   1  7.138280  7.138280 32.836088
8852   1  7.138280  7.138280 35.691400
8853   1  7.138280  7.138280 38.546712
8854   1  7.138280  7.138280 41.402024
8855   1  7.138280  7.138280 44.257336
8856   1  7.138280  7.138280 47.112648
8857   1  7.138280  7.138280 49.967960
8858   1  7.138280  7.138280 52.823272
8859   1  7.138280  7.138280 55.678584
8860   1  7.138280  9.993592  1.427656
8861   1  7.138280  9.993592  4.282968
8862   1  7.138280  9.993592  7.138280
8863   1  7.138280  9.993592  9.993592
8864   1  7.138280  9.993592 12.848904
8865   1  7.138280  9.993592 15.704216
8866   1  7.138280  9.993592 18.559528
8867   1  7.138280  9.993592 21.414840
8868   1  7.138280  9.993592 24.270152
8869   1  7.138280  9.993592 27.125464
8870   1  7.138280  9.993592 29.980776
8871   1  7.138280  9.993592 32.836088
8872   1  7.138280  9.993592 35.691400
8873   1  7.138280  9.993592 38.546712
8874   1  7.138280  9.993592 41.402024
8875   1  7.138280  9.993592 44.257336
8876   1  7.138280  9.993592 47.112648
8877   1  7.138280  9.993592 49.967960
8878   1  7.138280  9.993592 52.823272
8879   1  7.138280  9.993592 55.678584
8880   1  7.138280 12.848904  1.427656
8881   1  7.138280 12.848904  4.282968
8882   1  7.138280 12.848904  7.138280
8883   1  7.138280 12.848904  9.993592
8884   1  7.138280 12.848904 12.848904
8885   1  7.138280 12.848904 15.704216
8886   1  7.138280 12.848904 18.559528
8887   1  7.138280 12.848904 21.414840
8888   1  7.138280 12.848904 24.270152
8889   1  7.138280 12.848904 27.125464
8890   1  7.138280 12.848904 29.980776
8891   1  7.138280 12.848904 32.836088
8892   1  7.138280 12.848904 35.691400
8893   1  7.138280 12.848904 38.546712
8894   1  7.138280 12.848904 41.402024
8895   1  7.138280 12.848904 44.257336
8896   1  7.138280 12.848904 47.112648
8897   1  7.138280 12.848904 49.967960
8898   1  7.138280 12.848904 52.823272
8899   1  7.138280 12.848904 55.678584
8900   1  7.138280 15.704216  1.427656
8901   1  7.138280 15.704216  4.282968
8902   1  7.138280 15.704216  7.138280
8903   1  7.138280 15.704216  9.993592
8904   1  7.138280 15.704216 12.848904
8905   1  7.138280 15.704216 15.704216
8906   1  7.138280 15.704216 18.559528
8907   1  7.138280 15.704216 21.414840
8908   1  7.138280 15.704216 24.270152
8909   1  7.138280 15.704216 27.125464
8910   1  7.138280 15.704216 29.980776
8911   1  7.138280 15.704216 32.836088
8912   1  7.138280 15.704216 35.691400
8913   1  7.138280 15.704216 38.546712
8914   1  7.138280 15.704216 41.402024
8915   1  7.138280 15.704216 44.257336
8916   1  7.138280 15.704216 47.112648
8917   1  7.138280 15.704216 49.967960
8918   1  7.138280 15.704216 52.823272
8919   1  7.138280 15.704216 55.678584
8920   1  7.138280 18.559528  1.427656
8921   1  7.138280 18.559528  4.282968
8922   1  7.138280 18.559528  7.138280
8923   1  7.138280 18.559528  9.993592
8924   1  7.138280 18.559528 12.848904
8925   1  7.138280 18.559528 15.704216
8926   1  7.138280 18.559528 18.559528
8927   1  7.138280 18.559528 21.414840
8928   1  7.138280 18.559528 24.270152
8929   1  7.138280 18.559528 27.125464
8930   1  7.138280 18.559528 29.980776
8931   1  7.138280 18.559528 32.836088
8932   1  7.138280 18.559528 35.691400
8933   1  7.138280 18.559528 38.546712
8934   1  7.138280 18.559528 41.402024
8935   1  7.138280 18.559528 44.257336
8936   1  7.138280 18.559528 47.112648
8937   1  7.138280 18.559528 49.967960
8938   1  7.138280 18.559528 52.823272
8939   1  7.138280 18.559528 55.678584
8940   1  7.138280 21.414840  1.427656
8941   1  7.138280 21.414840  4.282968
8942   1  7.138280 21.414840  7.138280
8943   1  7.138280 21.414840  9.993592
8944   1  7.138280 21.414840 12.848904
8945   1  7.138280 21.414840 15.704216
8946   1  7.138280 21.414840 18.559528
8947   1  7.138280 21.414840 21.414840
8948   1  7.138280 21.414840 24.270152
8949   1  7.138280 21.414840 27.125464
8950   1  7.138280 21.414840 29.980776
8951   1  7.138280 21.414840 32.836088
8952   1  7.138280 21.414840 35.691400
8953   1  7.138280 21.414840 38.546712
8954   1  7.138280 21.414840 41.402024
8955   1  7.138280 21.414840 44.257336
8956   1  7.138280 21.414840 47.112648
8957   1  7.138280 21.414840 49.967960
8958   1  7.138280 21.414840 52.823272
8959   1  7.138280 21.414840 55.678584
8960   1  7.138280 24.270152  1.427656
8961   1  7.138280 24.270152  4.282968
8962   1  7.138280 24.270152  7.138280
8963   1  7.138280 24.270152  9.993592
8964   1  7.138280 24.270152 12.848904
8965   1  7.138280 24.270152 15.704216
8966   1  7.138280 24.270152 18.559528
8967   1  7.138280 24.270152 21.414840
8968   1  7.138280 24.270152 24.270152
8969   1  7.138280 24.270152 27.125464
8970   1  7.138280 24.270152 29.980776
8971   1  7.138280 24.270152 32.836088
8972   1  7.138280 24.270152 35.691400
8973   1  7.138280 24.270152 38.546712
8974   1  7.138280 24.270152 41.402024
8975   1  7.138280 24.270152 44.257336
8976   1  7.138280 24.270152 47.112648
8977   1  7.138280 24.270152 49.967960
8978   1  7.138280 24.270152 52.823272
8979   1  7.138280 24.270152 55.678584
8980   1  7.138280 27.125464  1.427656
8981   1  7.138280 27.125464  4.282968
8982   1  7.138280 27.125464  7.138280
8983   1  7.138280 27.125464  9.993592
8984   1  7.138280 27.125464 12.848904
8985   1  7.138280 27.125464 15.704216
8986   1  7.138280 27.125464 18.559528
8987   1  7.138280 27.125464 21.414840
8988   1  7.138280 27.125464 24.270152
8989   1  7.138280 27.125464 27.125464
8990   1  7.138280 27.125464 29.980776
8991   1  7.138280 27.125464 32.836088
8992   1  7.138280 27.125464 35.691400
8993   1  7.138280 27.125464 38.546712
8994   1  7.138280 27.125464 41.402024
8995   1  7.138280 27.125464 44.257336
8996   1  7.138280 27.125464 47.112648
8997   1  7.138280 27.125464 49.967960
8998   1  7.138280 27.125464 52.823272
8999   1  7.138280 27.125464 55.678584
9000   1  7.138280 29.980776  1.427656
9001   1  7.138280 29.980776  4.282968
9002   1  7.138280 29.980776  7.138280
9003   1  7.138280 29.980776  9.993592
9004   1  7.138280 29.980776 12.848904
9005   1  7.138280 29.980776 15.704216
9006   1  7.138280 29.980776 18.559528
9007   1  7.138280 29.980776 21.414840
9008   1  7.138280 29.980776 24.270152
9009   1  7.138280 29.980776 27.125464
9010   1  7.138280 29.980776 29.980776
9011   1  7.138280 29.980776 32.836088
9012   1  7.138280 29.980776 35.691400
9013   1  7.138280 29.980776 38.546712
9014   1  7.138280 29.980776 41.402024
9015   1  7.138280 29.980776 44.257336
9016   1  7.138280 29.980776 47.112648
9017   1  7.138280 29.980776 49.967960
9018   1  7.138280 29.980776 52.823272
9019   1  7.138280 29.980776 55.678584
9020   1  7.138280 32.836088  1.427656
9021   1  7.138280 32.836088  4.282968
9022   1  7.138280 32.836088  7.138280
9023   1  7.138280 32.836088  9.993592
9024   1  7.138280 32.836088 12.848904
9025   1  7.138280 32.836088 15.704216
9026   1  7.138280 32.836088 18.559528
9027   1  7.138280 32.836088 21.414840
9028   1  7.138280 32.836088 24.270152
9029   1  7.138280 32.836088 27.125464
9030   1  7.138280 32.836088 29.980776
9031   1  7.138280 32.836088 32.836088
9032   1  7.138280 32.836088 35.691400
9033   1  7.138280 32.836088 38.546712
9034   1  7.138280 32.836088 41.402024
9035   1  7.138280 32.836088 44.257336
9036   1  7.138280 32.836088 47.112648
9037   1  7.138280 32.836088 49.967960
9038   1  7.138280 32.836088 52.823272
9039   1  7.138280 32.836088 55.678584
9040   1  7.138280 35.691400  1.427656
9041   1  7.138280 35.691400  4.282968
9042   1  7.138280 35.691400  7.138280
9043   1  7.138280 35.691400  9.993592
9044   1  7.138280 35.691400 12.848904
9045   1  7.138280 35.691400 15.704216
9046   1  7.138280 35.691400 18.559528
9047   1  7.138280 35.691400 21.414840
9048   1  7.138280 35.691400 24.270152
9049   1  7.138280 35.691400 27.125464
9050   1  7.138280 35.691400 29.980776
9051   1  7.138280 35.691400 32.836088
9052   1  7.138280 35.691400 35.691400
9053   1  7.138280 35.691400 38.546712
9054   1  7.138280 35.691400 41.402024
9055   1  7.138280 35.691400 44.257336
9056   1  7.138280 35.691400 47.112648
9057   1  7.138280 35.691400 49.967960
9058   1  7.138280 35.691400 52.823272
9059   1  7.138280 35.691400 55.678584
9060   1  7.138280 38.546712  1.427656
9061   1  7.138280 38.546712  4.282968
9062   1  7.138280 38.546712  7.138280
9063   1  7.138280 38.546712  9.993592
9064   1  7.138280 38.546712 12.848904
9065   1  7.138280 38.546712 15.704216
9066   1  7.138280 38.546712 18.559528
9067   1  7.138280 38.546712 21.414840
9068   1  7.138280 38.546712 24.270152
9069   1  7.138280 38.546712 27.125464
9070   1  7.138280 38.546712 29.980776
9071   1  7.138280 38.546712 32.836088
9072   1  7.138280 38.546712 35.691400
9073   1  7.138280 38.546712 38.546712
9074   1  7.138280 38.546712 41.402024
9075   1  7.138280 38.546712 44.257336
9076   1  7.138280 38.546712 47.112648
9077   1  7.138280 38.546712 49.967960
9078   1  7.138280 38.546712 52.823272
9079   1  7.138280 38.546712 55.678584
9080   1  7.138280 41.402024  1.427656
9081   1  7.138280 41.402024  4.282968
9082   1  7.138280 41.402024  7.138280
9083   1  7.138280 41.402024  9.993592
9084   1  7.138280 41.402024 12.848904
9085   1  7.138280 41.402024 15.704216
9086   1  7.138280 41.402024 18.559528
9087   1  7.138280 41.402024 21.414840
9088   1  7.138280 41.402024 24.270152
9089   1  7.138280 41.402024 27.125464
9090   1  7.138280 41.402024 29.980776
9091   1  7.138280 41.402024 32.836088
9092   1  7.138280 41.402024 35.691400
9093   1  7.138280 41.402024 38.546712
9094   1  7.138280 41.402024 41.402024
9095   1  7.138280 41.402024 44.257336
9096   1  7.138280 41.402024 47.112648
9097   1  7.138280 41.402024 49.967960
9098   1  7.138280 41.402024 52.823272
9099   1  7.138280 41.402024 55.678584
9100   1  7.138280 44.257336  1.427656
9101   1  7.138280 44.257336  4.282968
9102   1  7.138280 44.257336  7.138280
9103   1  7.138280 44.257336  9.993592
9104   1  7.138280 44.257336 12.848904
9105   1  7.138280 44.257336 15.704216
9106   1  7.138280 44.257336 18.559528
9107   1  7.138280 44.257336 21.414840
9108   1  7.138280 44.257336 24.270152
9109   1  7.138280 44.257336 27.125464
9110   1  7.138280 44.257336 29.980776
9111   1  7.138280 44.257336 32.836088
9112   1  7.138280 44.257336 35.691400
9113   1  7.138280 44.257336 38.546712
9114   1  7.138280 44.257336 41.402024
9115   1  7.138280 44.257336 44.257336
9116   1  7.138280 44.257336 47.112648
9117   1  7.138280 44.257336 49.967960
9118   1  7.138280 44.257336 52.823272
9119   1  7.138280 44.257336 55.678584
9120   1  7.138280 47.112648  1.427656
9121   1  7.138280 47.112648  4.282968
9122   1  7.138280 47.112648  7.138280
9123   1  7.138280 47.112648  9.993592
9124   1  7.138280 47.112648 12.848904
9125   1  7.138280 47.112648 15.704216
9126   1  7.138280 47.112648 18.559528
9127   1  7.138280 47.112648 21.414840
9128   1  7.138280 47.112648 24.270152
9129   1  7.138280 47.112648 27.125464
9130   1  7.138280 47.112648 29.980776
9131   1  7.138280 47.112648 32.836088
9132   1  7.138280 47.112648 35.691400
9133   1  7.138280 47.112648 38.546712
9134   1  7.138280 47.112648 41.402024
9135   1  7.138280 47.112648 44.257336
9136   1  7.138280 47.112648 47.112648
9137   1  7.138280 47.112648 49.967960
9138   1  7.138280 47.112648 52.823272
9139   1  7.138280 47.112648 55.678584
9140   1  7.138280 49.967960  1.427656
9141   1  7.138280 49.967960  4.282968
9142   1  7.138280 49.967960  7.138280
9143   1  7.138280 49.967960  9.993592
9144   1  7.138280 49.967960 12.848904
9145   1  7.138280 49.967960 15.704216
9146   1  7.138280 49.967960 18.559528
9147   1  7.138280 49.967960 21.414840
9148   1  7.138280 49.967960 24.270152
9149   1  7.138280 49.967960 27.125464
9150   1  7.138280 49.967960 29.980776
9151   1  7.138280 49.967960 32.836088
9152   1  7.138280 49.967960 35.691400
9153   1  7.138280 49.967960 38.546712
9154   1  7.138280 49.967960 41.402024
9155   1  7.138280 49.967960 44.257336
9156   1  7.138280 49.967960 47.112648
9157   1  7.138280 49.967960 49.967960
9158   1  7.138280 49.967960 52.823272
9159   1  7.138280 49.967960 55.678584
9160   1  7.138280 52.823272  1.427656
9161   1  7.138280 52.823272  4.282968
9162   1  7.138280 52.823272  7.138280
9163   1  7.138280 52.823272  9.993592
9164   1  7.138280 52.823272 12.848904
9165   1  7.138280 52.823272 15.704216
9166   1  7.138280 52.823272 18.559528
9167   1  7.138280 52.823272 21.414840
9168   1  7.138280 52.823272 24.270152
9169   1  7.138280 52.823272 27.125464
9170   1  7.138280 52.823272 29.980776
9171   1  7.138280 52.823272 32.836088
9172   1  7.138280 52.823272 35.691400
9173   1  7.138280 52.823272 38.546712
9174   1  7.138280 52.823272 41.402024
9175   1  7.138280 52.823272 44.257336
9176   1  7.138280 52.823272 47.112648
9177   1  7.138280 52.823272 49.967960
9178   1  7.138280 52.823272 52.823272
9179   1  7.138280 52.823272 55.678584
9180   1  7.138280 55.678584  1.427656
9181   1  7.138280 55.678584  4.282968
9182   1  7.138280 55.678584  7.138280
9183   1  7.138280 55.678584  9.993592
9184   1  7.138280 55.678584 12.848904
9185   1  7.138280 55.678584 15.704216
9186   1  7.138280 55.678584 18.559528
9187   1  7.138280 55.678584 21.414840
9188   1  7.138280 55.678584 24.270152
9189   1  7.138280 55.678584 27.125464
9190   1  7.138280 55.678584 29.980776
9191   1  7.138280 55.678584 32.836088
9192   1  7.138280 55.678584 35.691400
9193   1  7.138280 55.678584 38.546712
9194   1  7.138280 55.678584 41.402024
9195   1  7.138280 55.678584 44.257336
9196   1  7.138280 55.678584 47.112648
9197   1  7.138280 55.678584 49.967960
9198   1  7.138280 55.678584 52.823272
9199   1  7.138280 55.678584 55.678584
9200   1  9.993592  1.427656  1.427656
9201   1  9.993592  1.427656  4.282968
9202   1  9.993592  1.427656  7.138280
9203   1  9.993592  1.427656  9.993592
9204   1  9.993592  1.427656 12.848904
9205   1  9.993592  1.427656 15.704216
9206   1  9.993592  1.427656 18.559528
9207   1  9.993592  1.427656 21.414840
9208   1  9.993592  1.427656 24.270152
9209   1  9.993592  1.427656 27.125464
9210   1  9.993592  1.427656 29.980776
9211   1  9.993592  1.427656 32.836088
9212   1  9.993592  1.427656 35.691400
9213   1  9.993592  1.427656 38.546712
9214   1  9.993592  1.427656 41.402024
9215   1  9.993592  1.427656 44.257336
9216   1  9.993592  1.427656 47.112648
9217   1  9.993592  1.427656 49.967960
9218   1  9.993592  1.427656 52.823272
9219   1  9.993592  1.427656 55.678584
9220   1  9.993592  4.282968  1.427656
9221   1  9.993592  4.282968  4.282968
9222   1  9.993592  4.282968  7.138280
9223   1  9.993592  4.282968  9.993592
9224   1  9.993592  4.282968 12.848904
9225   1  9.993592  4.282968 15.704216
9226   1  9.993592  4.282968 18.559528
9227   1  9.993592  4.282968 21.414840
9228   1  9.993592  4.282968 24.270152
9229   1  9.993592  4.282968 27.125464
9230   1  9.993592  4.282968 29.980776
9231   1  9.993592  4.282968 32.836088
9232   1  9.993592  4.282968 35.691400
9233   1  9.993592  4.282968 38.546712
9234   1  9.993592  4.282968 41.402024
9235   1  9.993592  4.282968 44.257336
9236   1  9.993592  4.282968 47.112648
9237   1  9.993592  4.282968 49.967960
9238   1  9.993592  4.282968 52.823272
9239   1  9.993592  4.282968 55.678584
9240   1  9.993592  7.138280  1.427656
9241   1  9.993592  7.138280  4.282968
9242   1  9.993592  7.138280  7.138280
9243   1  9.993592  7.138280  9.993592
9244   1  9.993592  7.138280 12.848904
9245   1  9.993592  7.138280 15.704216
9246   1  9.993592  7.138280 18.559528
9247   1  9.993592  7.138280 21.414840
9248   1  9.993592  7.138280 24.270152
9249   1  9.993592  7.138280 27.125464
9250   1  9.993592  7.138280 29.980776
9251   1  9.993592  7.138280 32.836088
9252   1  9.993592  7.138280 35.691400
9253   1  9.993592  7.138280 38.546712
9254   1  9.993592  7.138280 41.402024
9255   1  9.993592  7.138280 44.257336
9256   1  9.993592  7.138280 47.112648
9257   1  9.993592  7.138280 49.967960
9258   1  9.993592  7.138280 52.823272
9259   1  9.993592  7.138280 55.678584
9260   1  9.993592  9.993592  1.427656
9261   1  9.993592  9.993592  4.282968
9262   1  9.993592  9.993592  7.138280
9263   1  9.993592  9.993592  9.993592
9264   1  9.993592  9.993592 12.848904
9265   1  9.993592  9.993592 15.704216
9266   1  9.993592  9.993592 18.559528
9267   1  9.993592  9.993592 21.414840
9268   1  9.993592  9.993592 24.270152
9269   1  9.993592  9.993592 27.125464
9270   1  9.993592  9.993592 29.980776
9271   1  9.993592  9.993592 32.836088
9272   1  9.993592  9.993592 35.691400
9273   1  9.993592  9.993592 38.546712
9274   1  9.993592  9.993592 41.402024
9275   1  9.993592  9.993592 44.257336
9276   1  9.993592  9.993592 47.112648
9277   1  9.993592  9.993592 49.967960
9278   1  9.993592  9.993592 52.823272
9279   1  9.993592  9.993592 55.678584
9280   1  9.993592 12.848904  1.427656
9281   1  9.993592 12.848904  4.282968
9282   1  9.993592 12.848904  7.138280
9283   1  9.993592 12.848904  9.993592
9284   1  9.993592 12.848904 12.848904
9285   1  9.993592 12.848904 15.704216
9286   1  9.993592 12.848904 18.559528
9287   1  9.993592 12.848904 21.414840
9288   1  9.993592 12.848904 24.270152
9289   1  9.993592 12.848904 27.125464
9290   1  9.993592 12.848904 29.980776
9291   1  9.993592 12.848904 32.836088
9292   1  9.993592 12.848904 35.691400
9293   1  9.993592 12.848904 38.546712
9294   1  9.993592 12.848904 41.402024
9295   1  9.993592 12.848904 44.257336
9296   1  9.993592 12.848904 47.112648
9297   1  9.993592 12.848904 49.967960
9298   1  9.993592 12.848904 52.823272
9299   1  9.993592 12.848904 55.678584
9300   1  9.993592 15.704216  1.427656
9301   1  9.993592 15.704216  4.282968
9302   1  9.993592 15.704216  7.138280
9303   1  9.993592 15.704216  9.993592
9304   1  9.993592 15.704216 12.848904
9305   1  9.993592 15.704216 15.704216
9306   1  9.993592 15.704216 18.559528
9307   1  9.993592 15.704216 21.414840
9308   1  9.993592 15.704216 24.270152
9309   1  9.993592 15.704216 27.125464
9310   1  9.993592 15.704216 29.980776
9311   1  9.993592 15.704216 32.836088
9312   1  9.993592 15.704216 35.691400
9313   1  9.993592 15.704216 38.546712
9314   1  9.993592 15.704216 41.402024
9315   1  9.993592 15.704216 44.257336
9316   1  9.993592 15.704216 47.112648
9317   1  9.993592 15.704216 49.967960
9318   1  9.993592 15.704216 52.823272
9319   1  9.993592 15.704216 55.678584
9320   1  9.993592 18.559528  1.427656
9321   1  9.993592 18.559528  4.282968
9322   1  9.993592 18.559528  7.138280
9323   1  9.993592 18.559528  9.993592
9324   1  9.993592 18.559528 12.848904
9325   1  9.993592 18.559528 15.704216
9326   1  9.993592 18.559528 18.559528
9327   1  9.993592 18.559528 21.414840
9328   1  9.993592 18.559528 24.270152
9329   1  9.993592 18.559528 27.125464
9330   1  9.993592 18.559528 29.980776
9331   1  9.993592 18.559528 32.836088
9332   1  9.993592 18.559528 35.691400
9333   1  9.993592 18.559528 38.546712
9334   1  9.993592 18.559528 41.402024
9335   1  9.993592 18.559528 44.257336
9336   1  9.993592 18.559528 47.112648
9337   1  9.993592 18.559528 49.967960
9338   1  9.993592 18.559528 52.823272
9339   1  9.993592 18.559528 55.678584
9340   1  9.993592 21.414840  1.427656
9341   1  9.993592 21.414840  4.282968
9342   1  9.993592 21.414840  7.138280
9343   1  9.993592 21.414840  9.993592
9344   1  9.993592 21.414840 12.848904
9345   1  9.993592 21.414840 15.704216
9346   1  9.993592 21.414840 18.559528
9347   1  9.993592 21.414840 21.414840
9348   1  9.993592 21.414840 24.270152
9349   1  9.993592 21.414840 27.125464
9350   1  9.993592 21.414840 29.980776
9351   1  9.993592 21.414840 32.836088
9352   1  9.993592 21.414840 35.691400
9353   1  9.993592 21.414840 38.546712
9354   1  9.993592 21.414840 41.402024
9355   1  9.993592 21.414840 44.257336
9356   1  9.993592 21.414840 47.112648
9357   1  9.993592 21.414840 49.967960
9358   1  9.993592 21.414840 52.823272
9359   1  9.993592 21.414840 55.678584
9360   1  9.993592 24.270152  1.427656
9361   1  9.993592 24.270152  4.282968
9362   1  9.993592 24.270152  7.138280
9363   1  9.993592 24.270152  9.993592
9364   1  9.993592 24.270152 12.848904
9365   1  9.993592 24.270152 15.704216
9366   1  9.993592 24.270152 18.559528
9367   1  9.993592 24.270152 21.414840
9368   1  9.993592 24.270152 24.270152
9369   1  9.993592 24.270152 27.125464
9370   1  9.993592 24.270152 29.980776
9371   1  9.993592 24.270152 32.836088
9372   1  9.993592 24.270152 35.691400
9373   1  9.993592 24.270152 38.546712
9374   1  9.993592 24.270152 41.402024
9375   1  9.993592 24.270152 44.257336
9376   1  9.993592 24.270152 47.112648
9377   1  9.993592 24.270152 49.967960
9378   1  9.993592 24.270152 52.823272
9379   1  9.993592 24.270152 55.678584
9380   1  9.993592 27.125464  1.427656
9381   1  9.993592 27.125464  4.282968
9382   1  9.993592 27.125464  7.138280
9383   1  9.993592 27.125464  9.993592
9384   1  9.993592 27.125464 12.848904
9385   1  9.993592 27.125464 15.704216
9386   1  9.993592 27.125464 18.559528
9387   1  9.993592 27.125464 21.414840
9388   1  9.993592 27.125464 24.270152
9389   1  9.993592 27.125464 27.125464
9390   1  9.993592 27.125464 29.980776
9391   1  9.993592 27.125464 32.836088
9392   1  9.993592 27.125464 35.691400
9393   1  9.993592 27.125464 38.546712
9394   1  9.993592 27.125464 41.402024
9395   1  9.993592 27.125464 44.257336
9396   1  9.993592 27.125464 47.112648
9397   1  9.993592 27.125464 49.967960
9398   1  9.993592 27.125464 52.823272
9399   1  9.993592 27.125464 55.678584
9400   1  9.993592 29.980776  1.427656
9401   1  9.993592 29.980776  4.282968
9402   1  9.993592 29.980776  7.138280
9403   1  9.993592 29.980776  9.993592
9404   1  9.993592 29.980776 12.848904
9405   1  9.993592 29.980776 15.704216
9406   1  9.993592 29.980776 18.559528
9407   1  9.993592 29.980776 21.414840
9408   1  9.993592 29.980776 24.270152
9409   1  9.993592 29.980776 27.125464
9410   1  9.993592 29.980776 29.980776
9411   1  9.993592 29.980776 32.836088
9412   1  9.993592 29.980776 35.691400
9413   1  9.993592 29.980776 38.546712
9414   1  9.993592 29.980776 41.402024
9415   1  9.993592 29.980776 44.257336
9416   1  9.993592 29.980776 47.112648
9417   1  9.993592 29.980776 49.967960
9418   1  9.993592 29.980776 52.823272
9419   1  9.993592 29.980776 55.678584
9420   1  9.993592 32.836088  1.427656
9421   1  9.993592 32.836088  4.282968
9422   1  9.993592 32.836088  7.138280
9423   1  9.993592 32.836088  9.993592
9424   1  9.993592 32.836088 12.848904
9425   1  9.993592 32.836088 15.704216
9426   1  9.993592 32.836088 18.559528
9427   1  9.993592 32.836088 21.414840
9428   1  9.993592 32.836088 24.270152
9429   1  9.993592 32.836088 27.125464
9430   1  9.993592 32.836088 29.980776
9431   1  9.993592 32.836088 32.836088
9432   1  9.993592 32.836088 35.691400
9433   1  9.993592 32.836088 38.546712
9434   1  9.993592 32.836088 41.402024
9435   1  9.993592 32.836088 44.257336
9436   1  9.993592 32.836088 47.112648
9437   1  9.993592 32.836088 49.967960
9438   1  9.993592 32.836088 52.823272
9439   1  9.993592 32.836088 55.678584
9440   1  9.993592 35.691400  1.427656
9441   1  9.993592 35.691400  4.282968
9442   1  9.993592 35.691400  7.138280
9443   1  9.993592 35.691400  9.993592
9444   1  9.993592 35.691400 12.848904
9445   1  9.993592 35.691400 15.704216
9446   1  9.993592 35.691400 18.559528
9447   1  9.993592 35.691400 21.414840
9448   1  9.993592 35.691400 24.270152
9449   1  9.993592 35.691400 27.125464
9450   1  9.993592 35.691400 29.980776
9451   1  9.993592 35.691400 32.836088
9452   1  9.993592 35.691400 35.691400
9453   1  9.993592 35.691400 38.546712
9454   1  9.993592 35.691400 41.402024
9455   1  9.993592 35.691400 44.257336
9456   1  9.993592 35.691400 47.112648
9457   1  9.993592 35.691400 49.967960
9458   1  9.993592 35.691400 52.823272
9459   1  9.993592 35.691400 55.678584
9460   1  9.993592 38.546712  1.427656
9461   1  9.993592 38.546712  4.282968
9462   1  9.993592 38.546712  7.138280
9463   1  9.993592 38.546712  9.993592
9464   1  9.993592 38.546712 12.848904
9465   1  9.993592 38.546712 15.704216
9466   1  9.993592 38.546712 18.559528
9467   1  9.993592 38.546712 21.414840
9468   1  9.993592 38.546712 24.270152
9469   1  9.993592 38.546712 27.125464
9470   1  9.993592 38.546712 29.980776
9471   1  9.993592 38.546712 32.836088
9472   1  9.993592 38.546712 35.691400
9473   1  9.993592 38.546712 38.546712
9474   1  9.993592 38.546712 41.402024
9475   1  9.993592 38.546712 44.257336
9476   1  9.993592 38.546712 47.112648
9477   1  9.993592 38.546712 49.967960
9478   1  9.993592 38.546712 52.823272
9479   1  9.993592 38.546712 55.678584
9480   1  9.993592 41.402024  1.427656
9481   1  9.993592 41.402024  4.282968
9482   1  9.993592 41.402024  7.138280
9483   1  9.993592 41.402024  9.993592
9484   1  9.993592 41.402024 12.848904
9485   1  9.993592 41.402024 15.704216
9486   1  9.993592 41.402024 18.559528
9487   1  9.993592 41.402024 21.414840
9488   1  9.993592 41.402024 24.270152
9489   1  9.993592 41.402024 27.125464
9490   1  9.993592 41.402024 29.980776
9491   1  9.993592 41.402024 32.836088
9492   1  9.993592 41.402024 35.691400
9493   1  9.993592 41.402024 38.546712
9494   1  9.993592 41.402024 41.402024
9495   1  9.993592 41.402024 44.257336
9496   1  9.993592 41.402024 47.112648
9497   1  9.993592 41.402024 49.967960
9498   1  9.993592 41.402024 52.823272
9499   1  9.993592 41.402024 55.678584
9500   1  9.993592 44.257336  1.427656
9501   1  9.993592 44.257336  4.282968
9502   1  9.993592 44.257336  7.138280
9503   1  9.993592 44.257336  9.993592
9504   1  9.993592 44.257336 12.848904
9505   1  9.993592 44.257336 15.704216
9506   1  9.993592 44.257336 18.559528
9507   1  9.993592 44.257336 21.414840
9508   1  9.993592 44.257336 24.270152
9509   1  9.993592 44.257336 27.125464
9510   1  9.993592 44.257336 29.980776
9511   1  9.993592 44.257336 32.836088
9512   1  9.993592 44.257336 35.691400
9513   1  9.993592 44.257336 38.546712
9514   1  9.993592 44.257336 41.402024
9515   1  9.993592 44.257336 44.257336
9516   1  9.993592 44.257336 47.112648
9517   1  9.993592 44.257336 49.967960
9518   1  9.993592 44.257336 52.823272
9519   1  9.993592 44.257336 55.678584
9520   1  9.993592 47.112648  1.427656
9521   1  9.993592 47.112648  4.282968
9522   1  9.993592 47.112648  7.138280
9523   1  9.993592 47.112648  9.993592
9524   1  9.993592 47.112648 12.848904
9525   1  9.993592 47.112648 15.704216
9526   1  9.993592 47.112648 18.559528
9527   1  9.993592 47.112648 21.414840
9528   1  9.993592 47.112648 24.270152
9529   1  9.993592 47.112648 27.125464
9530   1  9.993592 47.112648 29.980776
9531   1  9.993592 47.112648 32.836088
9532   1  9.993592 47.112648 35.691400
9533   1  9.993592 47.112648 38.546712
9534   1  9.993592 47.112648 41.402024
9535   1  9.993592 47.112648 44.257336
9536   1  9.993592 47.112648 47.112648
9537   1  9.993592 47.112648 49.967960
9538   1  9.993592 47.112648 52.823272
9539   1  9.993592 47.112648 55.678584
9540   1  9.993592 49.967960  1.427656
9541   1  9.993592 49.967960  4.282968
9542   1  9.993592 49.967960  7.138280
9543   1  9.993592 49.967960  9.993592
9544   1  9.993592 49.967960 12.848904
9545   1  9.993592 49.967960 15.704216
9546   1  9.993592 49.967960 18.559528
9547   1  9.993592 49.967960 21.414840
9548   1  9.993592 49.967960 24.270152
9549   1  9.993592 49.967960 27.125464
9550   1  9.993592 49.967960 29.980776
9551   1  9.993592 49.967960 32.836088
9552   1  9.993592 49.967960 35.691400
9553   1  9.993592 49.967960 38.546712
9554   1  9.993592 49.967960 41.402024
9555   1  9.993592 49.967960 44.257336
9556   1  9.993592 49.967960 47.112648
9557   1  9.993592 49.967960 49.967960
9558   1  9.993592 49.967960 52.823272
9559   1  9.993592 49.967960 55.678584
9560   1  9.993592 52.823272  1.427656
9561   1  9.993592 52.823272  4.282968
9562   1  9.993592 52.823272  7.138280
9563   1  9.993592 52.823272  9.993592
9564   1  9.993592 52.823272 12.848904
9565   1  9.993592 52.823272 15.704216
9566   1  9.993592 52.823272 18.559528
9567   1  9.993592 52.823272 21.414840
9568   1  9.993592 52.823272 24.270152
9569   1  9.993592 52.823272 27.125464
9570   1  9.993592 52.823272 29.980776
9571   1  9.993592 52.823272 32.836088
9572   1  9.993592 52.823272 35.691400
9573   1  9.993592 52.823272 38.546712
9574   1  9.993592 52.823272 41.402024
9575   1  9.993592 52.823272 44.257336
9576   1  9.993592 52.823272 47.112648
9577   1  9.993592 52.823272 49.967960
9578   1  9.993592 52.823272 52.823272
9579   1  9.993592 52.823272 55.678584
9580   1  9.993592 55.678584  1.427656
9581   1  9.993592 55.678584  4.282968
9582   1  9.993592 55.678584  7.138280
9583   1  9.993592 55.678584  9.993592
9584   1  9.993592 55.678584 12.848904
9585   1  9.993592 55.678584 15.704216
9586   1  9.993592 55.678584 18.559528
9587   1  9.993592 55.678584 21.414840
9588   1  9.993592 55.678584 24.270152
9589   1  9.993592 55.678584 27.125464
9590   1  9.993592 55.678584 29.980776
9591   1  9.993592 55.678584 32.836088
9592   1  9.993592 55.678584 35.691400
9593   1  9.993592 55.678584 38.546712
9594   1  9.993592 55.678584 41.402024
9595   1  9.993592 55.678584 44.257336
9596   1  9.993592 55.678584 47.112648
9597   1  9.993592 55.678584 49.967960
9598   1  9.993592 55.678584 52.823272
9599   1  9.993592 55.678584 55.678584
9600   1 12.848904  1.427656  1.427656
9601   1 12.848904  1.427656  4.282968
9602   1 12.848904  1.427656  7.138280
9603   1 12.848904  1.427656  9.993592
9604   1 12.848904  1.427656 12.848904
9605   1 12.848904  1.427656 15.704216
9606   1 12.848904  1.427656 18.559528
9607   1 12.848904  1.427656 21.414840
9608   1 12.848904  1.427656 24.270152
9609   1 12.848904  1.427656 27.125464
9610   1 12.848904  1.427656 29.980776
9611   1 12.848904  1.427656 32.836088
9612   1 12.848904  1.427656 35.691400
9613   1 12.848904  1.427656 38.546712
9614   1 12.848904  1.427656 41.402024
9615   1 12.848904  1.427656 44.257336
9616   1 12.848904  1.427656 47.112648
9617   1 12.848904  1.427656 49.967960
9618   1 12.848904  1.427656 52.823272
9619   1 12.848904  1.427656 55.678584
9620   1 12.848904  4.282968  1.427656
9621   1 12.848904  4.282968  4.282968
9622   1 12.848904  4.282968  7.138280
9623   1 12.848904  4.282968  9.993592
9624   1 12.848904  4.282968 12.848904
9625   1 12.848904  4.282968 15.704216
9626   1 12.848904  4.282968 18.559528
9627   1 12.848904  4.282968 21.414840
9628   1 12.848904  4.282968 24.270152
9629   1 12.848904  4.282968 27.125464
9630   1 12.848904  4.282968 29.980776
9631   1 12.848904  4.282968 32.836088
9632   1 12.848904  4.282968 35.691400
9633   1 12.848904  4.282968 38.546712
9634   1 12.848904  4.282968 41.402024
9635   1 12.848904  4.282968 44.257336
9636   1 12.848904  4.282968 47.112648
9637   1 12.848904  4.282968 49.967960
9638   1 12.848904  4.282968 52.823272
9639   1 12.848904  4.282968 55.678584
9640   1 12.848904  7.138280  1.427656
9641   1 12.848904  7.138280  4.282968
9642   1 12.848904  7.138280  7.138280
9643   1 12.848904  7.138280  9.993592
9644   1 12.848904  7.138280 12.848904
9645   1 12.848904  7.138280 15.704216
9646   1 12.848904  7.138280 18.559528
9647   1 12.848904  7.138280 21.414840
9648   1 12.848904  7.138280 24.270152
9649   1 12.848904  7.138280 27.125464
9650   1 12.848904  7.138280 29.980776
9651   1 12.848904  7.138280 32.836088
9652   1 12.848904  7.138280 35.691400
9653   1 12.848904  7.138280 38.546712
9654   1 12.848904  7.138280 41.402024
9655   1 12.848904  7.138280 44.257336
9656   1 12.848904  7.138280 47.112648
9657   1 12.848904  7.138280 49.967960
9658   1 12.848904  7.138280 52.823272
9659   1 12.848904  7.138280 55.678584
9660   1 12.848904  9.993592  1.427656
9661   1 12.848904  9.993592  4.282968
9662   1 12.848904  9.993592  7.138280
9663   1 12.848904  9.993592  9.993592
9664   1 12.848904  9.993592 12.848904
9665   1 12.848904  9.993592 15.704216
9666   1 12.848904  9.993592 18.559528
9667   1 12.848904  9.993592 21.414840
9668   1 12.848904  9.993592 24.270152
9669   1 12.848904  9.993592 27.125464
9670   1 12.848904  9.993592 29.980776
9671   1 12.848904  9.993592 32.836088
9672   1 12.848904  9.993592 35.691400
9673   1 12.848904  9.993592 38.546712
9674   1 12.848904  9.993592 41.402024
9675   1 12.848904  9.993592 44.257336
9676   1 12.848904  9.993592 47.112648
9677   1 12.848904  9.993592 49.967960
9678   1 12.848904  9.993592 52.823272
9679   1 12.848904  9.993592 55.678584
9680   1 12.848904 12.848904  1.427656
9681   1 12.848904 12.848904  4.282968
9682   1 12.848904 12.848904  7.138280
9683   1 12.848904 12.848904  9.993592
9684   1 12.848904 12.848904 12.848904
9685   1 12.848904 12.848904 15.704216
9686   1 12.848904 12.848904 18.559528
9687   1 12.848904 12.848904 21.414840
9688   1 12.848904 12.848904 24.270152
9689   1 12.848904 12.848904 27.125464
9690   1 12.848904 12.848904 29.980776
9691   1 12.848904 12.848904 32.836088
9692   1 12.848904 12.848904 35.691400
9693   1 12.848904 12.848904 38.546712
9694   1 12.848904 12.848904 41.402024
9695   1 12.848904 12.848904 44.257336
9696   1 12.848904 12.848904 47.112648
9697   1 12.848904 12.848904 49.967960
9698   1 12.848904 12.848904 52.823272
9699   1 12.848904 12.848904 55.678584
9700   1 12.848904 15.704216  1.427656
9701   1 12.848904 15.704216  4.282968
9702   1 12.848904 15.704216  7.138280
9703   1 12.848904 15.704216  9.993592
9704   1 12.848904 15.704216 12.848904
9705   1 12.848904 15.704216 15.704216
9706   1 12.848904 15.704216 18.559528
9707   1 12.848904 15.704216 21.414840
9708   1 12.848904 15.704216 24.270152
9709   1 12.848904 15.704216 27.125464
9710   1 12.848904 15.704216 29.980776
9711   1 12.848904 15.704216 32.836088
9712   1 12.848904 15.704216 35.691400
9713   1 12.848904 15.704216 38.546712
9714   1 12.848904 15.704216 41.402024
9715   1 12.848904 15.704216 44.257336
9716   1 12.848904 15.704216 47.112648
9717   1 12.848904 15.704216 49.967960
9718   1 12.848904 15.704216 52.823272
9719   1 12.848904 15.704216 55.678584
9720   1 12.848904 18.559528  1.427656
9721   1 12.848904 18.559528  4.282968
9722   1 12.848904 18.559528  7.138280
9723   1 12.848904 18.559528  9.993592
9724   1 12.848904 18.559528 12.848904
9725   1 12.848904 18.559528 15.704216
9726   1 12.848904 18.559528 18.559528
9727   1 12.848904 18.559528 21.414840
9728   1 12.848904 18.559528 24.270152
9729   1 12.848904 18.559528 27.125464
9730   1 12.848904 18.559528 29.980776
9731   1 12.848904 18.559528 32.836088
9732   1 12.848904 18.559528 35.691400
9733   1 12.848904 18.559528 38.546712
9734   1 12.848904 18.559528 41.402024
9735   1 12.848904 18.559528 44.257336
9736   1 12.848904 18.559528 47.112648
9737   1 12.848904 18.559528 49.967960
9738   1 12.848904 18.559528 52.823272
9739   1 12.848904 18.559528 55.678584
9740   1 12.848904 21.414840  1.427656
9741   1 12.848904 21.414840  4.282968
9742   1 12.848904 21.414840  7.138280
9743   1 12.848904 21.414840  9.993592
9744   1 12.848904 21.414840 12.848904
9745   1 12.848904 21.414840 15.704216
9746   1 12.848904 21.414840 18.559528
9747   1 12.848904 21.414840 21.414840
9748   1 12.848904 21.414840 24.270152
9749   1 12.848904 21.414840 27.125464
9750   1 12.848904 21.414840 29.980776
9751   1 12.848904 21.414840 32.836088
9752   1 12.848904 21.414840 35.691400
9753   1 12.848904 21.414840 38.546712
9754   1 12.848904 21.414840 41.402024
9755   1 12.848904 21.414840 44.257336
9756   1 12.848904 21.414840 47.112648
9757   1 12.848904 21.414840 49.967960
9758   1 12.848904 21.414840 52.823272
9759   1 12.848904 21.414840 55.678584
9760   1 12.848904 24.270152  1.427656
9761   1 12.848904 24.270152  4.282968
9762   1 12.848904 24.270152  7.138280
9763   1 12.848904 24.270152  9.993592
9764   1 12.848904 24.270152 12.848904
9765   1 12.848904 24.270152 15.704216
9766   1 12.848904 24.270152 18.559528
9767   1 12.848904 24.270152 21.414840
9768   1 12.848904 24.270152 24.270152
9769   1 12.848904 24.270152 27.125464
9770   1 12.848904 24.270152 29.980776
9771   1 12.848904 24.270152 32.836088
9772   1 12.848904 24.270152 35.691400
9773   1 12.848904 24.270152 38.546712
9774   1 12.848904 24.270152 41.402024
9775   1 12.848904 24.270152 44.257336
9776   1 12.848904 24.270152 47.112648
9777   1 12.848904 24.270152 49.967960
9778   1 12.848904 24.270152 52.823272
9779   1 12.848904 24.270152 55.678584
9780   1 12.848904 27.125464  1.427656
9781   1 12.848904 27.125464  4.282968
9782   1 12.848904 27.125464  7.138280
9783   1 12.848904 27.125464  9.993592
9784   1 12.848904 27.125464 12.848904
9785   1 12.848904 27.125464 15.704216
9786   1 12.848904 27.125464 18.559528
9787   1 12.848904 27.125464 21.414840
9788   1 12.848904 27.125464 24.270152
9789   1 12.848904 27.125464 27.125464
9790   1 12.848904 27.125464 29.980776
9791   1 12.848904 27.125464 32.836088
9792   1 12.848904 27.125464 35.691400
9793   1 12.848904 27.125464 38.546712
9794   1 12.848904 27.125464 41.402024
9795   1 12.848904 27.125464 44.257336
9796   1 12.848904 27.125464 47.112648
9797   1 12.848904 27.125464 49.967960
9798   1 12.848904 27.125464 52.823272
9799   1 12.848904 27.125464 55.678584
9800   1 12.848904 29.980776  1.427656
9801   1 12.848904 29.980776  4.282968
9802   1 12.848904 29.980776  7.138280
9803   1 12.848904 29.980776  9.993592
9804   1 12.848904 29.980776 12.848904
9805   1 12.848904 29.980776 15.704216
9806   1 12.848904 29.980776 18.559528
9807   1 12.848904 29.980776 21.414840
9808   1 12.848904 29.980776 24.270152
9809   1 12.848904 29.980776 27.125464
9810   1 12.848904 29.980776 29.980776
9811   1 12.848904 29.980776 32.836088
9812   1 12.848904 29.980776 35.691400
9813   1 12.848904 29.980776 38.546712
9814   1 12.848904 29.980776 41.402024
9815   1 12.848904 29.980776 44.257336
9816   1 12.848904 29.980776 47.112648
9817   1 12.848904 29.980776 49.967960
9818   1 12.848904 29.980776 52.823272
9819   1 12.848904 29.980776 55.678584
9820   1 12.848904 32.836088  1.427656
9821   1 12.848904 32.836088  4.282968
9822   1 12.848904 32.836088  7.138280
9823   1 12.848904 32.836088  9.993592
9824   1 12.848904 32.836088 12.848904
9825   1 12.848904 32.836088 15.704216
9826   1 12.848904 32.836088 18.559528
9827   1 12.848904 32.836088 21.414840
9828   1 12.848904 32.836088 24.270152
9829   1 12.848904 32.836088 27.125464
9830   1 12.848904 32.836088 29.980776
9831   1 12.848904 32.836088 32.836088
9832   1 12.848904 32.836088 35.691400
9833   1 12.848904 32.836088 38.546712
9834   1 12.848904 32.836088 41.402024
9835   1 12.848904 32.836088 44.257336
9836   1 12.848904 32.836088 47.112648
9837   1 12.848904 32.836088 49.967960
9838   1 12.848904 32.836088 52.823272
9839   1 12.848904 32.836088 55.678584
9840   1 12.848904 35.691400  1.427656
9841   1 12.848904 35.691400  4.282968
9842   1 12.848904 35.691400  7.138280
9843   1 12.848904 35.691400  9.993592
9844   1 12.848904 35.691400 12.848904
9845   1 12.848904 35.691400 15.704216
9846   1 12.848904 35.691400 18.559528
9847   1 12.848904 35.691400 21.414840
9848   1 12.848904 35.691400 24.270152
9849   1 12.848904 35.691400 27.125464
9850   1 12.848904 35.691400 29.980776
9851   1 12.848904 35.691400 32.836088
9852   1 12.848904 35.691400 35.691400
9853   1 12.848904 35.691400 38.546712
9854   1 12.848904 35.691400 41.402024
9855   1 12.848904 35.691400 44.257336
9856   1 12.848904 35.691400 47.112648
9857   1 12.848904 35.691400 49.967960
9858   1 12.848904 35.691400 52.823272
9859   1 12.848904 35.691400 55.678584
9860   1 12.848904 38.546712  1.427656
9861   1 12.848904 38.546712  4.282968
9862   1 12.848904 38.546712  7.138280
9863   1 12.848904 38.546712  9.993592
9864   1 12.848904 38.546712 12.848904
9865   1 12.848904 38.546712 15.704216
9866   1 12.848904 38.546712 18.559528
9867   1 12.848904 38.546712 21.414840
9868   1 12.848904 38.546712 24.270152
9869   1 12.848904 38.546712 27.125464
9870   1 12.848904 38.546712 29.980776
9871   1 12.848904 38.546712 32.836088
9872   1 12.848904 38.546712 35.691400
9873   1 12.848904 38.546712 38.546712
9874   1 12.848904 38.546712 41.402024
9875   1 12.848904 38.546712 44.257336
9876   1 12.848904 38.546712 47.112648
9877   1 12.848904 38.546712 49.967960
9878   1 12.848904 38.546712 52.823272
9879   1 12.848904 38.546712 55.678584
9880   1 12.848904 41.402024  1.427656
9881   1 12.848904 41.402024  4.282968
9882   1 12.848904 41.402024  7.138280
9883   1 12.848904 41.402024  9.993592
9884   1 12.848904 41.402024 12.848904
9885   1 12.848904 41.402024 15.704216
9886   1 12.848904 41.402024 18.559528
9887   1 12.848904 41.402024 21.414840
9888   1 12.848904 41.402024 24.270152
9889   1 12.848904 41.402024 27.125464
9890   1 12.848904 41.402024 29.980776
9891   1 12.848904 41.402024 32.836088
9892   1 12.848904 41.402024 35.691400
9893   1 12.848904 41.402024 38.546712
9894   1 12.848904 41.402024 41.402024
9895   1 12.848904 41.402024 44.257336
9896   1 12.848904 41.402024 47.112648
9897   1 12.848904 41.402024 49.967960
9898   1 12.848904 41.402024 52.823272
9899   1 12.848904 41.402024 55.678584
9900   1 12.848904 44.257336  1.427656
9901   1 12.848904 44.257336  4.282968
9902   1 12.848904 44.257336  7.138280
9903   1 12.848904 44.257336  9.993592
9904   1 12.848904 44.257336 12.848904
9905   1 12.848904 44.257336 15.704216
9906   1 12.848904 44.257336 18.559528
9907   1 12.848904 44.257336 21.414840
9908   1 12.848904 44.257336 24.270152
9909   1 12.848904 44.257336 27.125464
9910   1 12.848904 44.257336 29.980776
9911   1 12.848904 44.257336 32.836088
9912   1 12.848904 44.257336 35.691400
9913   1 12.848904 44.257336 38.546712
9914   1 12.848904 44.257336 41.402024
9915   1 12.848904 44.257336 44.257336
9916   1 12.848904 44.257336 47.112648
9917   1 12.848904 44.257336 49.967960
9918   1 12.848904 44.257336 52.823272
9919   1 12.848904 44.257336 55.678584
9920   1 12.848904 47.112648  1.427656
9921   1 12.848904 47.112648  4.282968
9922   1 12.848904 47.112648  7.138280
9923   1 12.848904 47.112648  9.993592
9924   1 12.848904 47.112648 12.848904
9925   1 12.848904 47.112648 15.704216
9926   1 12.848904 47.112648 18.559528
9927   1 12.848904 47.112648 21.414840
9928   1 12.848904 47.112648 24.270152
9929   1 12.848904 47.112648 27.125464
9930   1 12.848904 47.112648 29.980776
9931   1 12.848904 47.112648 32.836088
9932   1 12.848904 47.112648 35.691400
9933   1 12.848904 47.112648 38.546712
9934   1 12.848904 47.112648 41.402024
9935   1 12.848904 47.112648 44.257336
9936   1 12.848904 47.112648 47.112648
9937   1 12.848904 47.112648 49.967960
9938   1 12.848904 47.112648 52.823272
9939   1 12.848904 47.112648 55.678584
9940   1 12.848904 49.967960  1.427656
9941   1 12.848904 49.967960  4.282968
9942   1 12.848904 49.967960  7.138280
9943   1 12.848904 49.967960  9.993592
9944   1 12.848904 49.967960 12.848904
9945   1 12.848904 49.967960 15.704216
9946   1 12.848904 49.967960 18.559528
9947   1 12.848904 49.967960 21.414840
9948   1 12.848904 49.967960 24.270152
9949   1 12.848904 49.967960 27.125464
9950   1 12.848904 49.967960 29.980776
9951   1 12.848904 49.967960 32.836088
9952   1 12.848904 49.967960 35.691400
9953   1 12.848904 49.967960 38.546712
9954   1 12.848904 49.967960 41.402024
9955   1 12.848904 49.967960 44.257336
9956   1 12.848904 49.967960 47.112648
9957   1 12.848904 49.967960 49.967960
9958   1 12.848904 49.967960 52.823272
9959   1 12.848904 49.967960 55.678584
9960   1 12.848904 52.823272  1.427656
9961   1 12.848904 52.823272  4.282968
9962   1 12.848904 52.823272  7.138280
9963   1 12.848904 52.823272  9.993592
9964   1 12.848904 52.823272 12.848904
9965   1 12.848904 52.823272 15.704216
9966   1 12.848904 52.823272 18.559528
9967   1 12.848904 52.823272 21.414840
9968   1 12.848904 52.823272 24.270152
9969   1 12.848904 52.823272 27.125464
9970   1 12.848904 52.823272 29.980776
9971   1 12.848904 52.823272 32.836088
9972   1 12.848904 52.823272 35.691400
9973   1 12.848904 52.823272 38.546712
9974   1 12.848904 52.823272 41.402024
9975   1 12.848904 52.823272 44.257336
9976   1 12.848904 52.823272 47.112648
9977   1 12.848904 52.823272 49.967960
9978   1 12.848904 52.823272 52.823272
9979   1 12.848904 52.823272 55.678584
9980   1 12.848904 55.678584  1.427656
9981   1 12.848904 55.678584  4.282968
9982   1 12.848904 55.678584  7.138280
9983   1 12.848904 55.678584  9.993592
9984   1 12.848904 55.678584 12.848904
9985   1 12.848904 55.678584 15.704216
9986   1 12.848904 55.678584 18.559528
9987   1 12.848904 55.678584 21.414840
9988   1 12.848904 55.678584 24.270152
9989   1 12.848904 55.678584 27.125464
9990   1 12.848904 55.678584 29.980776
9991   1 12.848904 55.678584 32.836088
9992   1 12.848904 55.678584 35.691400
9993   1 12.848904 55.678584 38.546712
9994   1 12.848904 55.678584 41.402024
9995   1 12.848904 55.678584 44.257336
9996   1 12.848904 55.678584 47.112648
9997   1 12.848904 55.678584 49.967960
9998   1 12.848904 55.678584 52.823272
9999   1 12.848904 55.678584 55.678584
10000  1 15.704216  1.427656  1.427656
10001  1 15.704216  1.427656  4.282968
10002  1 15.704216  1.427656  7.138280
10003  1 15.704216  1.427656  9.993592
10004  1 15.704216  1.427656 12.848904
10005  1 15.704216  1.427656 15.704216
10006  1 15.704216  1.427656 18.559528
10007  1 15.704216  1.427656 21.414840
10008  1 15.704216  1.427656 24.270152
10009  1 15.704216  1.427656 27.125464
10010  1 15.704216  1.427656 29.980776
10011  1 15.704216  1.427656 32.836088
10012  1 15.704216  1.427656 35.691400
10013  1 15.704216  1.427656 38.546712
10014  1 15.704216  1.427656 41.402024
10015  1 15.704216  1.427656 44.257336
10016  1 15.704216  1.427656 47.112648
10017  1 15.704216  1.427656 49.967960
10018  1 15.704216  1.427656 52.823272
10019  1 15.704216  1.427656 55.678584
10020  1 15.704216  4.282968  1.427656
10021  1 15.704216  4.282968  4.282968
10022  1 15.704216  4.282968  7.138280
10023  1 15.704216  4.282968  9.993592
10024  1 15.704216  4.282968 12.848904
10025  1 15.704216  4.282968 15.704216
10026  1 15.704216  4.282968 18.559528
10027  1 15.704216  4.282968 21.414840
10028  1 15.704216  4.282968 24.270152
10029  1 15.704216  4.282968 27.125464
10030  1 15.704216  4.282968 29.980776
10031  1 15.704216  4.282968 32.836088
10032  1 15.704216  4.282968 35.691400
10033  1 15.704216  4.282968 38.546712
10034  1 15.704216  4.282968 41.402024
10035  1 15.704216  4.282968 44.257336
10036  1 15.704216  4.282968 47.112648
10037  1 15.704216  4.282968 49.967960
10038  1 15.704216  4.282968 52.823272
10039  1 15.704216  4.282968 55.678584
10040  1 15.704216  7.138280  1.427656
10041  1 15.704216  7.138280  4.282968
10042  1 15.704216  7.138280  7.138280
10043  1 15.704216  7.138280  9.993592
10044  1 15.704216  7.138280 12.848904
10045  1 15.704216  7.138280 15.704216
10046  1 15.704216  7.138280 18.559528
10047  1 15.704216  7.138280 21.414840
10048  1 15.704216  7.138280 24.270152
10049  1 15.704216  7.138280 27.125464
10050  1 15.704216  7.138280 29.980776
10051  1 15.704216  7.138280 32.836088
10052  1 15.704216  7.138280 35.691400
10053  1 15.704216  7.138280 38.546712
10054  1 15.704216  7.138280 41.402024
10055  1 15.704216  7.138280 44.257336
10056  1 15.704216  7.138280 47.112648
10057  1 15.704216  7.138280 49.967960
10058  1 15.704216  7.138280 52.823272
10059  1 15.704216  7.138280 55.678584
10060  1 15.704216  9.993592  1.427656
10061  1 15.704216  9.993592  4.282968
10062  1 15.704216  9.993592  7.138280
10063  1 15.704216  9.993592  9.993592
10064  1 15.704216  9.993592 12.848904
10065  1 15.704216  9.993592 15.704216
10066  1 15.704216  9.993592 18.559528
10067  1 15.704216  9.993592 21.414840
10068  1 15.704216  9.993592 24.270152
10069  1 15.704216  9.993592 27.125464
10070  1 15.704216  9.993592 29.980776
10071  1 15.704216  9.993592 32.836088
10072  1 15.704216  9.993592 35.691400
10073  1 15.704216  9.993592 38.546712
10074  1 15.704216  9.993592 41.402024
10075  1 15.704216  9.993592 44.257336
10076  1 15.704216  9.993592 47.112648
10077  1 15.704216  9.993592 49.967960
10078  1 15.704216  9.993592 52.823272
10079  1 15.704216  9.993592 55.678584
10080  1 15.704216 12.848904  1.427656
10081  1 15.704216 12.848904  4.282968
10082  1 15.704216 12.848904  7.138280
10083  1 15.704216 12.848904  9.993592
10084  1 15.704216 12.848904 12.848904
10085  1 15.704216 12.848904 15.704216
10086  1 15.704216 12.848904 18.559528
10087  1 15.704216 12.848904 21.414840
10088  1 15.704216 12.848904 24.270152
10089  1 15.704216 12.848904 27.125464
10090  1 15.704216 12.848904 29.980776
10091  1 15.704216 12.848904 32.836088
10092  1 15.704216 12.848904 35.691400
10093  1 15.704216 12.848904 38.546712
10094  1 15.704216 12.848904 41.402024
10095  1 15.704216 12.848904 44.257336
10096  1 15.704216 12.848904 47.112648
10097  1 15.704216 12.848904 49.967960
10098  1 15.704216 12.848904 52.823272
10099  1 15.704216 12.848904 55.678584
10100  1 15.704216 15.704216  1.427656
10101  1 15.704216 15.704216  4.282968
10102  1 15.704216 15.704216  7.138280
10103  1 15.704216 15.704216  9.993592
10104  1 15.704216 15.704216 12.848904
10105  1 15.704216 15.704216 15.704216
10106  1 15.704216 15.704216 18.559528
10107  1 15.704216 15.704216 21.414840
10108  1 15.704216 15.704216 24.270152
10109  1 15.704216 15.704216 27.125464
10110  1 15.704216 15.704216 29.980776
10111  1 15.704216 15.704216 32.836088
10112  1 15.704216 15.704216 35.691400
10113  1 15.704216 15.704216 38.546712
10114  1 15.704216 15.704216 41.402024
10115  1 15.704216 15.704216 44.257336
10116  1 15.704216 15.704216 47.112648
10117  1 15.704216 15.704216 49.967960
10118  1 15.704216 15.704216 52.823272
10119  1 15.704216 15.704216 55.678584
10120  1 15.704216 18.559528  1.427656
10121  1 15.704216 18.559528  4.282968
10122  1 15.704216 18.559528  7.138280
10123  1 15.704216 18.559528  9.993592
10124  1 15.704216 18.559528 12.848904
10125  1 15.704216 18.559528 15.704216
10126  1 15.704216 18.559528 18.559528
10127  1 15.704216 18.559528 21.414840
10128  1 15.704216 18.559528 24.270152
10129  1 15.704216 18.559528 27.125464
10130  1 15.704216 18.559528 29.980776
10131  1 15.704216 18.559528 32.836088
10132  1 15.704216 18.559528 35.691400
10133  1 15.704216 18.559528 38.546712
10134  1 15.704216 18.559528 41.402024
10135  1 15.704216 18.559528 44.257336
10136  1 15.704216 18.559528 47.112648
10137  1 15.704216 18.559528 49.967960
10138  1 15.704216 18.559528 52.823272
10139  1 15.704216 18.559528 55.678584
10140  1 15.704216 21.414840  1.427656
10141  1 15.704216 21.414840  4.282968
10142  1 15.704216 21.414840  7.138280
10143  1 15.704216 21.414840  9.993592
10144  1 15.704216 21.414840 12.848904
10145  1 15.704216 21.414840 15.704216
10146  1 15.704216 21.414840 18.559528
10147  1 15.704216 21.414840 21.414840
10148  1 15.704216 21.414840 24.270152
10149  1 15.704216 21.414840 27.125464
10150  1 15.704216 21.414840 29.980776
10151  1 15.704216 21.414840 32.836088
10152  1 15.704216 21.414840 35.691400
10153  1 15.704216 21.414840 38.546712
10154  1 15.704216 21.414840 41.402024
10155  1 15.704216 21.414840 44.257336
10156  1 15.704216 21.414840 47.112648
10157  1 15.704216 21.414840 49.967960
10158  1 15.704216 21.414840 52.823272
10159  1 15.704216 21.414840 55.678584
10160  1 15.704216 24.270152  1.427656
10161  1 15.704216 24.270152  4.282968
10162  1 15.704216 24.270152  7.138280
10163  1 15.704216 24.270152  9.993592
10164  1 15.704216 24.270152 12.848904
10165  1 15.704216 24.270152 15.704216
10166  1 15.704216 24.270152 18.559528
10167  1 15.704216 24.270152 21.414840
10168  1 15.704216 24.270152 24.270152
10169  1 15.704216 24.270152 27.125464
10170  1 15.704216 24.270152 29.980776
10171  1 15.704216 24.270152 32.836088
10172  1 15.704216 24.270152 35.691400
10173  1 15.704216 24.270152 38.546712
10174  1 15.704216 24.270152 41.402024
10175  1 15.704216 24.270152 44.257336
10176  1 15.704216 24.270152 47.112648
10177  1 15.704216 24.270152 49.967960
10178  1 15.704216 24.270152 52.823272
10179  1 15.704216 24.270152 55.678584
10180  1 15.704216 27.125464  1.427656
10181  1 15.704216 27.125464  4.282968
10182  1 15.704216 27.125464  7.138280
10183  1 15.704216 27.125464  9.993592
10184  1 15.704216 27.125464 12.848904
10185  1 15.704216 27.125464 15.704216
10186  1 15.704216 27.125464 18.559528
10187  1 15.704216 27.125464 21.414840
10188  1 15.704216 27.125464 24.270152
10189  1 15.704216 27.125464 27.125464
10190  1 15.704216 27.125464 29.980776
10191  1 15.704216 27.125464 32.836088
10192  1 15.704216 27.125464 35.691400
10193  1 15.704216 27.125464 38.546712
10194  1 15.704216 27.125464 41.402024
10195  1 15.704216 27.125464 44.257336
10196  1 15.704216 27.125464 47.112648
10197  1 15.704216 27.125464 49.967960
10198  1 15.704216 27.125464 52.823272
10199  1 15.704216 27.125464 55.678584
10200  1 15.704216 29.980776  1.427656
10201  1 15.704216 29.980776  4.282968
10202  1 15.704216 29.980776  7.138280
10203  1 15.704216 29.980776  9.993592
10204  1 15.704216 29.980776 12.848904
10205  1 15.704216 29.980776 15.704216
10206  1 15.704216 29.980776 18.559528
10207  1 15.704216 29.980776 21.414840
10208  1 15.704216 29.980776 24.270152
10209  1 15.704216 29.980776 27.125464
10210  1 15.704216 29.980776 29.980776
10211  1 15.704216 29.980776 32.836088
10212  1 15.704216 29.980776 35.691400
10213  1 15.704216 29.980776 38.546712
10214  1 15.704216 29.980776 41.402024
10215  1 15.704216 29.980776 44.257336
10216  1 15.704216 29.980776 47.112648
10217  1 15.704216 29.980776 49.967960
10218  1 15.704216 29.980776 52.823272
10219  1 15.704216 29.980776 55.678584
10220  1 15.704216 32.836088  1.427656
10221  1 15.704216 32.836088  4.282968
10222  1 15.704216 32.836088  7.138280
10223  1 15.704216 32.836088  9.993592
10224  1 15.704216 32.836088 12.848904
10225  1 15.704216 32.836088 15.704216
10226  1 15.704216 32.836088 18.559528
10227  1 15.704216 32.836088 21.414840
10228  1 15.704216 32.836088 24.270152
10229  1 15.704216 32.836088 27.125464
10230  1 15.704216 32.836088 29.980776
10231  1 15.704216 32.836088 32.836088
10232  1 15.704216 32.836088 35.691400
10233  1 15.704216 32.836088 38.546712
10234  1 15.704216 32.836088 41.402024
10235  1 15.704216 32.836088 44.257336
10236  1 15.704216 32.836088 47.112648
10237  1 15.704216 32.836088 49.967960
10238  1 15.704216 32.836088 52.823272
10239  1 15.704216 32.836088 55.678584
10240  1 15.704216 35.691400  1.427656
10241  1 15.704216 35.691400  4.282968
10242  1 15.704216 35.691400  7.138280
10243  1 15.704216 35.691400  9.993592
10244  1 15.704216 35.691400 12.848904
10245  1 15.704216 35.691400 15.704216
10246  1 15.704216 35.691400 18.559528
10247  1 15.704216 35.691400 21.414840
10248  1 15.704216 35.691400 24.270152
10249  1 15.704216 35.691400 27.125464
10250  1 15.704216 35.691400 29.980776
10251  1 15.704216 35.691400 32.836088
10252  1 15.704216 35.691400 35.691400
10253  1 15.704216 35.691400 38.546712
10254  1 15.704216 35.691400 41.402024
10255  1 15.704216 35.691400 44.257336
10256  1 15.704216 35.691400 47.112648
10257  1 15.704216 35.691400 49.967960
10258  1 15.704216 35.691400 52.823272
10259  1 15.704216 35.691400 55.678584
10260  1 15.704216 38.546712  1.427656
10261  1 15.704216 38.546712  4.282968
10262  1 15.704216 38.546712  7.138280
10263  1 15.704216 38.546712  9.993592
10264  1 15.704216 38.546712 12.848904
10265  1 15.704216 38.546712 15.704216
10266  1 15.704216 38.546712 18.559528
10267  1 15.704216 38.546712 21.414840
10268  1 15.704216 38.546712 24.270152
10269  1 15.704216 38.546712 27.125464
10270  1 15.704216 38.546712 29.980776
10271  1 15.704216 38.546712 32.836088
10272  1 15.704216 38.546712 35.691400
10273  1 15.704216 38.546712 38.546712
10274  1 15.704216 38.546712 41.402024
10275  1 15.704216 38.546712 44.257336
10276  1 15.704216 38.546712 47.112648
10277  1 15.704216 38.546712 49.967960
10278  1 15.704216 38.546712 52.823272
10279  1 15.704216 38.546712 55.678584
10280  1 15.704216 41.402024  1.427656
10281  1 15.704216 41.402024  4.282968
10282  1 15.704216 41.402024  7.138280
10283  1 15.704216 41.402024  9.993592
10284  1 15.704216 41.402024 12.848904
10285  1 15.704216 41.402024 15.704216
10286  1 15.704216 41.402024 18.559528
10287  1 15.704216 41.402024 21.414840
10288  1 15.704216 41.402024 24.270152
10289  1 15.704216 41.402024 27.125464
10290  1 15.704216 41.402024 29.980776
10291  1 15.704216 41.402024 32.836088
10292  1 15.704216 41.402024 35.691400
10293  1 15.704216 41.402024 38.546712
10294  1 15.704216 41.402024 41.402024
10295  1 15.704216 41.402024 44.257336
10296  1 15.704216 41.402024 47.112648
10297  1 15.704216 41.402024 49.967960
10298  1 15.704216 41.402024 52.823272
10299  1 15.704216 41.402024 55.678584
10300  1 15.704216 44.257336  1.427656
10301  1 15.704216 44.257336  4.282968
10302  1 15.704216 44.257336  7.138280
10303  1 15.704216 44.257336  9.993592
10304  1 15.704216 44.257336 12.848904
10305  1 15.704216 44.257336 15.704216
10306  1 15.704216 44.257336 18.559528
10307  1 15.704216 44.257336 21.414840
10308  1 15.704216 44.257336 24.270152
10309  1 15.704216 44.257336 27.125464
10310  1 15.704216 44.257336 29.980776
10311  1 15.704216 44.257336 32.836088
10312  1 15.704216 44.257336 35.691400
10313  1 15.704216 44.257336 38.546712
10314  1 15.704216 44.257336 41.402024
10315  1 15.704216 44.257336 44.257336
10316  1 15.704216 44.257336 47.112648
10317  1 15.704216 44.257336 49.967960
10318  1 15.704216 44.257336 52.823272
10319  1 15.704216 44.257336 55.678584
10320  1 15.704216 47.112648  1.427656
10321  1 15.704216 47.112648  4.282968
10322  1 15.704216 47.112648  7.138280
10323  1 15.704216 47.112648  9.993592
10324  1 15.704216 47.112648 12.848904
10325  1 15.704216 47.112648 15.704216
10326  1 15.704216 47.112648 18.559528
10327  1 15.704216 47.112648 21.414840
10328  1 15.704216 47.112648 24.270152
10329  1 15.704216 47.112648 27.125464
10330  1 15.704216 47.112648 29.980776
10331  1 15.704216 47.112648 32.836088
10332  1 15.704216 47.112648 35.691400
10333  1 15.704216 47.112648 38.546712
10334  1 15.704216 47.112648 41.402024
10335  1 15.704216 47.112648 44.257336
10336  1 15.704216 47.112648 47.112648
10337  1 15.704216 47.112648 49.967960
10338  1 15.704216 47.112648 52.823272
10339  1 15.704216 47.112648 55.678584
10340  1 15.704216 49.967960  1.427656
10341  1 15.704216 49.967960  4.282968
10342  1 15.704216 49.967960  7.138280
10343  1 15.704216 49.967960  9.993592
10344  1 15.704216 49.967960 12.848904
10345  1 15.704216 49.967960 15.704216
10346  1 15.704216 49.967960 18.559528
10347  1 15.704216 49.967960 21.414840
10348  1 15.704216 49.967960 24.270152
10349  1 15.704216 49.967960 27.125464
10350  1 15.704216 49.967960 29.980776
10351  1 15.704216 49.967960 32.836088
10352  1 15.704216 49.967960 35.691400
10353  1 15.704216 49.967960 38.546712
10354  1 15.704216 49.967960 41.402024
10355  1 15.704216 49.967960 44.257336
10356  1 15.704216 49.967960 47.112648
10357  1 15.704216 49.967960 49.967960
10358  1 15.704216 49.967960 52.823272
10359  1 15.704216 49.967960 55.678584
10360  1 15.704216 52.823272  1.427656
10361  1 15.704216 52.823272  4.282968
10362  1 15.704216 52.823272  7.138280
10363  1 15.704216 52.823272  9.993592
10364  1 15.704216 52.823272 12.848904
10365  1 15.704216 52.823272 15.704216
10366  1 15.704216 52.823272 18.559528
10367  1 15.704216 52.823272 21.414840
10368  1 15.704216 52.823272 24.270152
10369  1 15.704216 52.823272 27.125464
10370  1 15.704216 52.823272 29.980776
10371  1 15.704216 52.823272 32.836088
10372  1 15.704216 52.823272 35.691400
10373  1 15.704216 52.823272 38.546712
10374  1 15.704216 52.823272 41.402024
10375  1 15.704216 52.823272 44.257336
10376  1 15.704216 52.823272 47.112648
10377  1 15.704216 52.823272 49.967960
10378  1 15.704216 52.823272 52.823272
10379  1 15.704216 52.823272 55.678584
10380  1 15.704216 55.678584  1.427656
10381  1 15.704216 55.678584  4.282968
10382  1 15.704216 55.678584  7.138280
10383  1 15.704216 55.678584  9.993592
10384  1 15.704216 55.678584 12.848904
10385  1 15.704216 55.678584 15.704216
10386  1 15.704216 55.678584 18.559528
10387  1 15.704216 55.678584 21.414840
10388  1 15.704216 55.678584 24.270152
10389  1 15.704216 55.678584 27.125464
10390  1 15.704216 55.678584 29.980776
10391  1 15.704216 55.678584 32.836088
10392  1 15.704216 55.678584 35.691400
10393  1 15.704216 55.678584 38.546712
10394  1 15.704216 55.678584 41.402024
10395  1 15.704216 55.678584 44.257336
10396  1 15.704216 55.678584 47.112648
10397  1 15.704216 55.678584 49.967960
10398  1 15.704216 55.678584 52.823272
10399  1 15.704216 55.678584 55.678584
10400  1 18.559528  1.427656  1.427656
10401  1 18.559528  1.427656  4.282968
10402  1 18.559528  1.427656  7.138280
10403  1 18.559528  1.427656  9.993592
10404  1 18.559528  1.427656 12.848904
10405  1 18.559528  1.427656 15.704216
10406  1 18.559528  1.427656 18.559528
10407  1 18.559528  1.427656 21.414840
10408  1 18.559528  1.427656 24.270152
10409  1 18.559528  1.427656 27.125464
10410  1 18.559528  1.427656 29.980776
10411  1 18.559528  1.427656 32.836088
10412  1 18.559528  1.427656 35.691400
10413  1 18.559528  1.427656 38.546712
10414  1 18.559528  1.427656 41.402024
10415  1 18.559528  1.427656 44.257336
10416  1 18.559528  1.427656 47.112648
10417  1 18.559528  1.427656 49.967960
10418  1 18.559528  1.427656 52.823272
10419  1 18.559528  1.427656 55.678584
10420  1 18.559528  4.282968  1.427656
10421  1 18.559528  4.282968  4.282968
10422  1 18.559528  4.282968  7.138280
10423  1 18.559528  4.282968  9.993592
10424  1 18.559528  4.282968 12.848904
10425  1 18.559528  4.282968 15.704216
10426  1 18.559528  4.282968 18.559528
10427  1 18.559528  4.282968 21.414840
10428  1 18.559528  4.282968 24.270152
10429  1 18.559528  4.282968 27.125464
10430  1 18.559528  4.282968 29.980776
10431  1 18.559528  4.282968 32.836088
10432  1 18.559528  4.282968 35.691400
10433  1 18.559528  4.282968 38.546712
10434  1 18.559528  4.282968 41.402024
10435  1 18.559528  4.282968 44.257336
10436  1 18.559528  4.282968 47.112648
10437  1 18.559528  4.282968 49.967960
10438  1 18.559528  4.282968 52.823272
10439  1 18.559528  4.282968 55.678584
10440  1 18.559528  7.138280  1.427656
10441  1 18.559528  7.138280  4.282968
10442  1 18.559528  7.138280  7.138280
10443  1 18.559528  7.138280  9.993592
10444  1 18.559528  7.138280 12.848904
10445  1 18.559528  7.138280 15.704216
10446  1 18.559528  7.138280 18.559528
10447  1 18.559528  7.138280 21.414840
10448  1 18.559528  7.138280 24.270152
10449  1 18.559528  7.138280 27.125464
10450  1 18.559528  7.138280 29.980776
10451  1 18.559528  7.138280 32.836088
10452  1 18.559528  7.138280 35.691400
10453  1 18.559528  7.138280 38.546712
10454  1 18.559528  7.138280 41.402024
10455  1 18.559528  7.138280 44.257336
10456  1 18.559528  7.138280 47.112648
10457  1 18.559528  7.138280 49.967960
10458  1 18.559528  7.138280 52.823272
10459  1 18.559528  7.138280 55.678584
10460  1 18.559528  9.993592  1.427656
10461  1 18.559528  9.993592  4.282968
10462  1 18.559528  9.993592  7.138280
10463  1 18.559528  9.993592  9.993592
10464  1 18.559528  9.993592 12.848904
10465  1 18.559528  9.993592 15.704216
10466  1 18.559528  9.993592 18.559528
10467  1 18.559528  9.993592 21.414840
10468  1 18.559528  9.993592 24.270152
10469  1 18.559528  9.993592 27.125464
10470  1 18.559528  9.993592 29.980776
10471  1 18.559528  9.993592 32.836088
10472  1 18.559528  9.993592 35.691400
10473  1 18.559528  9.993592 38.546712
10474  1 18.559528  9.993592 41.402024
10475  1 18.559528  9.993592 44.257336
10476  1 18.559528  9.993592 47.112648
10477  1 18.559528  9.993592 49.967960
10478  1 18.559528  9.993592 52.823272
10479  1 18.559528  9.993592 55.678584
10480  1 18.559528 12.848904  1.427656
10481  1 18.559528 12.848904  4.282968
10482  1 18.559528 12.848904  7.138280
10483  1 18.559528 12.848904  9.993592
10484  1 18.559528 12.848904 12.848904
10485  1 18.559528 12.848904 15.704216
10486  1 18.559528 12.848904 18.559528
10487  1 18.559528 12.848904 21.414840
10488  1 18.559528 12.848904 24.270152
10489  1 18.559528 12.848904 27.125464
10490  1 18.559528 12.848904 29.980776
10491  1 18.559528 12.848904 32.836088
10492  1 18.559528 12.848904 35.691400
10493  1 18.559528 12.848904 38.546712
10494  1 18.559528 12.848904 41.402024
10495  1 18.559528 12.848904 44.257336
10496  1 18.559528 12.848904 47.112648
10497  1 18.559528 12.848904 49.967960
10498  1 18.559528 12.848904 52.823272
10499  1 18.559528 12.848904 55.678584
10500  1 18.559528 15.704216  1.427656
10501  1 18.559528 15.704216  4.282968
10502  1 18.559528 15.704216  7.138280
10503  1 18.559528 15.704216  9.993592
10504  1 18.559528 15.704216 12.848904
10505  1 18.559528 15.704216 15.704216
10506  1 18.559528 15.704216 18.559528
10507  1 18.559528 15.704216 21.414840
10508  1 18.559528 15.704216 24.270152
10509  1 18.559528 15.704216 27.125464
10510  1 18.559528 15.704216 29.980776
10511  1 18.559528 15.704216 32.836088
10512  1 18.559528 15.704216 35.691400
10513  1 18.559528 15.704216 38.546712
10514  1 18.559528 15.704216 41.402024
10515  1 18.559528 15.704216 44.257336
10516  1 18.559528 15.704216 47.112648
10517  1 18.559528 15.704216 49.967960
10518  1 18.559528 15.704216 52.823272
10519  1 18.559528 15.704216 55.678584
10520  1 18.559528 18.559528  1.427656
10521  1 18.559528 18.559528  4.282968
10522  1 18.559528 18.559528  7.138280
10523  1 18.559528 18.559528  9.993592
10524  1 18.559528 18.559528 12.848904
10525  1 18.559528 18.559528 15.704216
10526  1 18.559528 18.559528 18.559528
10527  1 18.559528 18.559528 21.414840
10528  1 18.559528 18.559528 24.270152
10529  1 18.559528 18.559528 27.125464
10530  1 18.559528 18.559528 29.980776
10531  1 18.559528 18.559528 32.836088
10532  1 18.559528 18.559528 35.691400
10533  1 18.559528 18.559528 38.546712
10534  1 18.559528 18.559528 41.402024
10535  1 18.559528 18.559528 44.257336
10536  1 18.559528 18.559528 47.112648
10537  1 18.559528 18.559528 49.967960
10538  1 18.559528 18.559528 52.823272
10539  1 18.559528 18.559528 55.678584
10540  1 18.559528 21.414840  1.427656
10541  1 18.559528 21.414840  4.282968
10542  1 18.559528 21.414840  7.138280
10543  1 18.559528 21.414840  9.993592
10544  1 18.559528 21.414840 12.848904
10545  1 18.559528 21.414840 15.704216
10546  1 18.559528 21.414840 18.559528
10547  1 18.559528 21.414840 21.414840
10548  1 18.559528 21.414840 24.270152
10549  1 18.559528 21.414840 27.125464
10550  1 18.559528 21.414840 29.980776
10551  1 18.559528 21.414840 32.836088
10552  1 18.559528 21.414840 35.691400
10553  1 18.559528 21.414840 38.546712
10554  1 18.559528 21.414840 41.402024
10555  1 18.559528 21.414840 44.257336
10556  1 18.559528 21.414840 47.112648
10557  1 18.559528 21.414840 49.967960
10558  1 18.559528 21.414840 52.823272
10559  1 18.559528 21.414840 55.678584
10560  1 18.559528 24.270152  1.427656
10561  1 18.559528 24.270152  4.282968
10562  1 18.559528 24.270152  7.138280
10563  1 18.559528 24.270152  9.993592
10564  1 18.559528 24.270152 12.848904
10565  1 18.559528 24.270152 15.704216
10566  1 18.559528 24.270152 18.559528
10567  1 18.559528 24.270152 21.414840
10568  1 18.559528 24.270152 24.270152
10569  1 18.559528 24.270152 27.125464
10570  1 18.559528 24.270152 29.980776
10571  1 18.559528 24.270152 32.836088
10572  1 18.559528 24.270152 35.691400
10573  1 18.559528 24.270152 38.546712
10574  1 18.559528 24.270152 41.402024
10575  1 18.559528 24.270152 44.257336
10576  1 18.559528 24.270152 47.112648
10577  1 18.559528 24.270152 49.967960
10578  1 18.559528 24.270152 52.823272
10579  1 18.559528 24.270152 55.678584
10580  1 18.559528 27.125464  1.427656
10581  1 18.559528 27.125464  4.282968
10582  1 18.559528 27.125464  7.138280
10583  1 18.559528 27.125464  9.993592
10584  1 18.559528 27.125464 12.848904
10585  1 18.559528 27.125464 15.704216
10586  1 18.559528 27.125464 18.559528
10587  1 18.559528 27.125464 21.414840
10588  1 18.559528 27.125464 24.270152
10589  1 18.559528 27.125464 27.125464
10590  1 18.559528 27.125464 29.980776
10591  1 18.559528 27.125464 32.836088
10592  1 18.559528 27.125464 35.691400
10593  1 18.559528 27.125464 38.546712
10594  1 18.559528 27.125464 41.402024
10595  1 18.559528 27.125464 44.257336
10596  1 18.559528 27.125464 47.112648
10597  1 18.559528 27.125464 49.967960
10598  1 18.559528 27.125464 52.823272
10599  1 18.559528 27.125464 55.678584
10600  1 18.559528 29.980776  1.427656
10601  1 18.559528 29.980776  4.282968
10602  1 18.559528 29.980776  7.138280
10603  1 18.559528 29.980776  9.993592
10604  1 18.559528 29.980776 12.848904
10605  1 18.559528 29.980776 15.704216
10606  1 18.559528 29.980776 18.559528
10607  1 18.559528 29.980776 21.414840
10608  1 18.559528 29.980776 24.270152
10609  1 18.559528 29.980776 27.125464
10610  1 18.559528 29.980776 29.980776
10611  1 18.559528 29.980776 32.836088
10612  1 18.559528 29.980776 35.691400
10613  1 18.559528 29.980776 38.546712
10614  1 18.559528 29.980776 41.402024
10615  1 18.559528 29.980776 44.257336
10616  1 18.559528 29.980776 47.112648
10617  1 18.559528 29.980776 49.967960
10618  1 18.559528 29.980776 52.823272
10619  1 18.559528 29.980776 55.678584
10620  1 18.559528 32.836088  1.427656
10621  1 18.559528 32.836088  4.282968
10622  1 18.559528 32.836088  7.138280
10623  1 18.559528 32.836088  9.993592
10624  1 18.559528 32.836088 12.848904
10625  1 18.559528 32.836088 15.704216
10626  1 18.559528 32.836088 18.559528
10627  1 18.559528 32.836088 21.414840
10628  1 18.559528 32.836088 24.270152
10629  1 18.559528 32.836088 27.125464
10630  1 18.559528 32.836088 29.980776
10631  1 18.559528 32.836088 32.836088
10632  1 18.559528 32.836088 35.691400
10633  1 18.559528 32.836088 38.546712
10634  1 18.559528 32.836088 41.402024
10635  1 18.559528 32.836088 44.257336
10636  1 18.559528 32.836088 47.112648
10637  1 18.559528 32.836088 49.967960
10638  1 18.559528 32.836088 52.823272
10639  1 18.559528 32.836088 55.678584
10640  1 18.559528 35.691400  1.427656
10641  1 18.559528 35.691400  4.282968
10642  1 18.559528 35.691400  7.138280
10643  1 18.559528 35.691400  9.993592
10644  1 18.559528 35.691400 12.848904
10645  1 18.559528 35.691400 15.704216
10646  1 18.559528 35.691400 18.559528
10647  1 18.559528 35.691400 21.414840
10648  1 18.559528 35.691400 24.270152
10649  1 18.559528 35.691400 27.125464
10650  1 18.559528 35.691400 29.980776
10651  1 18.559528 35.691400 32.836088
10652  1 18.559528 35.691400 35.691400
10653  1 18.559528 35.691400 38.546712
10654  1 18.559528 35.691400 41.402024
10655  1 18.559528 35.691400 44.257336
10656  1 18.559528 35.691400 47.112648
10657  1 18.559528 35.691400 49.967960
10658  1 18.559528 35.691400 52.823272
10659  1 18.559528 35.691400 55.678584
10660  1 18.559528 38.546712  1.427656
10661  1 18.559528 38.546712  4.282968
10662  1 18.559528 38.546712  7.138280
10663  1 18.559528 38.546712  9.993592
10664  1 18.559528 38.546712 12.848904
10665  1 18.559528 38.546712 15.704216
10666  1 18.559528 38.546712 18.559528
10667  1 18.559528 38.546712 21.414840
10668  1 18.559528 38.546712 24.270152
10669  1 18.559528 38.546712 27.125464
10670  1 18.559528 38.546712 29.980776
10671  1 18.559528 38.546712 32.836088
10672  1 18.559528 38.546712 35.691400
10673  1 18.559528 38.546712 38.546712
10674  1 18.559528 38.546712 41.402024
10675  1 18.559528 38.546712 44.257336
10676  1 18.559528 38.546712 47.112648
10677  1 18.559528 38.546712 49.967960
10678  1 18.559528 38.546712 52.823272
10679  1 18.559528 38.546712 55.678584
10680  1 18.559528 41.402024  1.427656
10681  1 18.559528 41.402024  4.282968
10682  1 18.559528 41.402024  7.138280
10683  1 18.559528 41.402024  9.993592
10684  1 18.559528 41.402024 12.848904
10685  1 18.559528 41.402024 15.704216
10686  1 18.559528 41.402024 18.559528
10687  1 18.559528 41.402024 21.414840
10688  1 18.559528 41.402024 24.270152
10689  1 18.559528 41.402024 27.125464
10690  1 18.559528 41.402024 29.980776
10691  1 18.559528 41.402024 32.836088
10692  1 18.559528 41.402024 35.691400
10693  1 18.559528 41.402024 38.546712
10694  1 18.559528 41.402024 41.402024
10695  1 18.559528 41.402024 44.257336
10696  1 18.559528 41.402024 47.112648
10697  1 18.559528 41.402024 49.967960
10698  1 18.559528 41.402024 52.823272
10699  1 18.559528 41.402024 55.678584
10700  1 18.559528 44.257336  1.427656
10701  1 18.559528 44.257336  4.282968
10702  1 18.559528 44.257336  7.138280
10703  1 18.559528 44.257336  9.993592
10704  1 18.559528 44.257336 12.848904
10705  1 18.559528 44.257336 15.704216
10706  1 18.559528 44.257336 18.559528
10707  1 18.559528 44.257336 21.414840
10708  1 18.559528 44.257336 24.270152
10709  1 18.559528 44.257336 27.125464
10710  1 18.559528 44.257336 29.980776
10711  1 18.559528 44.257336 32.836088
10712  1 18.559528 44.257336 35.691400
10713  1 18.559528 44.257336 38.546712
10714  1 18.559528 44.257336 41.402024
10715  1 18.559528 44.257336 44.257336
10716  1 18.559528 44.257336 47.112648
10717  1 18.559528 44.257336 49.967960
10718  1 18.559528 44.257336 52.823272
10719  1 18.559528 44.257336 55.678584
10720  1 18.559528 47.112648  1.427656
10721  1 18.559528 47.112648  4.282968
10722  1 18.559528 47.112648  7.138280
10723  1 18.559528 47.112648  9.993592
10724  1 18.559528 47.112648 12.848904
10725  1 18.559528 47.112648 15.704216
10726  1 18.559528 47.112648 18.559528
10727  1 18.559528 47.112648 21.414840
10728  1 18.559528 47.112648 24.270152
10729  1 18.559528 47.112648 27.125464
10730  1 18.559528 47.112648 29.980776
10731  1 18.559528 47.112648 32.836088
10732  1 18.559528 47.112648 35.691400
10733  1 18.559528 47.112648 38.546712
10734  1 18.559528 47.112648 41.402024
10735  1 18.559528 47.112648 44.257336
10736  1 18.559528 47.112648 47.112648
10737  1 18.559528 47.112648 49.967960
10738  1 18.559528 47.112648 52.823272
10739  1 18.559528 47.112648 55.678584
10740  1 18.559528 49.967960  1.427656
10741  1 18.559528 49.967960  4.282968
10742  1 18.559528 49.967960  7.138280
10743  1 18.559528 49.967960  9.993592
10744  1 18.559528 49.967960 12.848904
10745  1 18.559528 49.967960 15.704216
10746  1 18.559528 49.967960 18.559528
10747  1 18.559528 49.967960 21.414840
10748  1 18.559528 49.967960 24.270152
10749  1 18.559528 49.967960 27.125464
10750  1 18.559528 49.967960 29.980776
10751  1 18.559528 49.967960 32.836088
10752  1 18.559528 49.967960 35.691400
10753  1 18.559528 49.967960 38.546712
10754  1 18.559528 49.967960 41.402024
10755  1 18.559528 49.967960 44.257336
10756  1 18.559528 49.967960 47.112648
10757  1 18.559528 49.967960 49.967960
10758  1 18.559528 49.967960 52.823272
10759  1 18.559528 49.967960 55.678584
10760  1 18.559528 52.823272  1.427656
10761  1 18.559528 52.823272  4.282968
10762  1 18.559528 52.823272  7.138280
10763  1 18.559528 52.823272  9.993592
10764  1 18.559528 52.823272 12.848904
10765  1 18.559528 52.823272 15.704216
10766  1 18.559528 52.823272 18.559528
10767  1 18.559528 52.823272 21.414840
10768  1 18.559528 52.823272 24.270152
10769  1 18.559528 52.823272 27.125464
10770  1 18.559528 52.823272 29.980776
10771  1 18.559528 52.823272 32.836088
10772  1 18.559528 52.823272 35.691400
10773  1 18.559528 52.823272 38.546712
10774  1 18.559528 52.823272 41.402024
10775  1 18.559528 52.823272 44.257336
10776  1 18.559528 52.823272 47.112648
10777  1 18.559528 52.823272 49.967960
10778  1 18.559528 52.823272 52.823272
10779  1 18.559528 52.823272 55.678584
10780  1 18.559528 55.678584  1.427656
10781  1 18.559528 55.678584  4.282968
10782  1 18.559528 55.678584  7.138280
10783  1 18.559528 55.678584  9.993592
10784  1 18.559528 55.678584 12.848904
10785  1 18.559528 55.678584 15.704216
10786  1 18.559528 55.678584 18.559528
10787  1 18.559528 55.678584 21.414840
10788  1 18.559528 55.678584 24.270152
10789  1 18.559528 55.678584 27.125464
10790  1 18.559528 55.678584 29.980776
10791  1 18.559528 55.678584 32.836088
10792  1 18.559528 55.678584 35.691400
10793  1 18.559528 55.678584 38.546712
10794  1 18.559528 55.678584 41.402024
10795  1 18.559528 55.678584 44.257336
10796  1 18.559528 55.678584 47.112648
10797  1 18.559528 55.678584 49.967960
10798  1 18.559528 55.678584 52.823272
10799  1 18.559528 55.678584 55.678584
10800  1 21.414840  1.427656  1.427656
10801  1 21.414840  1.427656  4.282968
10802  1 21.414840  1.427656  7.138280
10803  1 21.414840  1.427656  9.993592
10804  1 21.414840  1.427656 12.848904
10805  1 21.414840  1.427656 15.704216
10806  1 21.414840  1.427656 18.559528
10807  1 21.414840  1.427656 21.414840
10808  1 21.414840  1.427656 24.270152
10809  1 21.414840  1.427656 27.125464
10810  1 21.414840  1.427656 29.980776
10811  1 21.414840  1.427656 32.836088
10812  1 21.414840  1.427656 35.691400
10813  1 21.414840  1.427656 38.546712
10814  1 21.414840  1.427656 41.402024
10815  1 21.414840  1.427656 44.257336
10816  1 21.414840  1.427656 47.112648
10817  1 21.414840  1.427656 49.967960
10818  1 21.414840  1.427656 52.823272
10819  1 21.414840  1.427656 55.678584
10820  1 21.414840  4.282968  1.427656
10821  1 21.414840  4.282968  4.282968
10822  1 21.414840  4.282968  7.138280
10823  1 21.414840  4.282968  9.993592
10824  1 21.414840  4.282968 12.848904
10825  1 21.414840  4.282968 15.704216
10826  1 21.414840  4.282968 18.559528
10827  1 21.414840  4.282968 21.414840
10828  1 21.414840  4.282968 24.270152
10829  1 21.414840  4.282968 27.125464
10830  1 21.414840  4.282968 29.980776
10831  1 21.414840  4.282968 32.836088
10832  1 21.414840  4.282968 35.691400
10833  1 21.414840  4.282968 38.546712
10834  1 21.414840  4.282968 41.402024
10835  1 21.414840  4.282968 44.257336
10836  1 21.414840  4.282968 47.112648
10837  1 21.414840  4.282968 49.967960
10838  1 21.414840  4.282968 52.823272
10839  1 21.414840  4.282968 55.678584
10840  1 21.414840  7.138280  1.427656
10841  1 21.414840  7.138280  4.282968
10842  1 21.414840  7.138280  7.138280
10843  1 21.414840  7.138280  9.993592
10844  1 21.414840  7.138280 12.848904
10845  1 21.414840  7.138280 15.704216
10846  1 21.414840  7.138280 18.559528
10847  1 21.414840  7.138280 21.414840
10848  1 21.414840  7.138280 24.270152
10849  1 21.414840  7.138280 27.125464
10850  1 21.414840  7.138280 29.980776
10851  1 21.414840  7.138280 32.836088
10852  1 21.414840  7.138280 35.691400
10853  1 21.414840  7.138280 38.546712
10854  1 21.414840  7.138280 41.402024
10855  1 21.414840  7.138280 44.257336
10856  1 21.414840  7.138280 47.112648
10857  1 21.414840  7.138280 49.967960
10858  1 21.414840  7.138280 52.823272
10859  1 21.414840  7.138280 55.678584
10860  1 21.414840  9.993592  1.427656
10861  1 21.414840  9.993592  4.282968
10862  1 21.414840  9.993592  7.138280
10863  1 21.414840  9.993592  9.993592
10864  1 21.414840  9.993592 12.848904
10865  1 21.414840  9.993592 15.704216
10866  1 21.414840  9.993592 18.559528
10867  1 21.414840  9.993592 21.414840
10868  1 21.414840  9.993592 24.270152
10869  1 21.414840  9.993592 27.125464
10870  1 21.414840  9.993592 29.980776
10871  1 21.414840  9.993592 32.836088
10872  1 21.414840  9.993592 35.691400
10873  1 21.414840  9.993592 38.546712
10874  1 21.414840  9.993592 41.402024
10875  1 21.414840  9.993592 44.257336
10876  1 21.414840  9.993592 47.112648
10877  1 21.414840  9.993592 49.967960
10878  1 21.414840  9.993592 52.823272
10879  1 21.414840  9.993592 55.678584
10880  1 21.414840 12.848904  1.427656
10881  1 21.414840 12.848904  4.282968
10882  1 21.414840 12.848904  7.138280
10883  1 21.414840 12.848904  9.993592
10884  1 21.414840 12.848904 12.848904
10885  1 21.414840 12.848904 15.704216
10886  1 21.414840 12.848904 18.559528
10887  1 21.414840 12.848904 21.414840
10888  1 21.414840 12.848904 24.270152
10889  1 21.414840 12.848904 27.125464
10890  1 21.414840 12.848904 29.980776
10891  1 21.414840 12.848904 32.836088
10892  1 21.414840 12.848904 35.691400
10893  1 21.414840 12.848904 38.546712
10894  1 21.414840 12.848904 41.402024
10895  1 21.414840 12.848904 44.257336
10896  1 21.414840 12.848904 47.112648
10897  1 21.414840 12.848904 49.967960
10898  1 21.414840 12.848904 52.823272
10899  1 21.414840 12.848904 55.678584
10900  1 21.414840 15.704216  1.427656
10901  1 21.414840 15.704216  4.282968
10902  1 21.414840 15.704216  7.138280
10903  1 21.414840 15.704216  9.993592
10904  1 21.414840 15.704216 12.848904
10905  1 21.414840 15.704216 15.704216
10906  1 21.414840 15.704216 18.559528
10907  1 21.414840 15.704216 21.414840
10908  1 21.414840 15.704216 24.270152
10909  1 21.414840 15.704216 27.125464
10910  1 21.414840 15.704216 29.980776
10911  1 21.414840 15.704216 32.836088
10912  1 21.414840 15.704216 35.691400
10913  1 21.414840 15.704216 38.546712
10914  1 21.414840 15.704216 41.402024
10915  1 21.414840 15.704216 44.257336
10916  1 21.414840 15.704216 47.112648
10917  1 21.414840 15.704216 49.967960
10918  1 21.414840 15.704216 52.823272
10919  1 21.414840 15.704216 55.678584
10920  1 21.414840 18.559528  1.427656
10921  1 21.414840 18.559528  4.282968
10922  1 21.414840 18.559528  7.138280
10923  1 21.414840 18.559528  9.993592
10924  1 21.414840 18.559528 12.848904
10925  1 21.414840 18.559528 15.704216
10926  1 21.414840 18.559528 18.559528
10927  1 21.414840 18.559528 21.414840
10928  1 21.414840 18.559528 24.270152
10929  1 21.414840 18.559528 27.125464
10930  1 21.414840 18.559528 29.980776
10931  1 21.414840 18.559528 32.836088
10932  1 21.414840 18.559528 35.691400
10933  1 21.414840 18.559528 38.546712
10934  1 21.414840 18.559528 41.402024
10935  1 21.414840 18.559528 44.257336
10936  1 21.414840 18.559528 47.112648
10937  1 21.414840 18.559528 49.967960
10938  1 21.414840 18.559528 52.823272
10939  1 21.414840 18.559528 55.678584
10940  1 21.414840 21.414840  1.427656
10941  1 21.414840 21.414840  4.282968
10942  1 21.414840 21.414840  7.138280
10943  1 21.414840 21.414840  9.993592
10944  1 21.414840 21.414840 12.848904
10945  1 21.414840 21.414840 15.704216
10946  1 21.414840 21.414840 18.559528
10947  1 21.414840 21.414840 21.414840
10948  1 21.414840 21.414840 24.270152
10949  1 21.414840 21.414840 27.125464
10950  1 21.414840 21.414840 29.980776
10951  1 21.414840 21.414840 32.836088
10952  1 21.414840 21.414840 35.691400
10953  1 21.414840 21.414840 38.546712
10954  1 21.414840 21.414840 41.402024
10955  1 21.414840 21.414840 44.257336
10956  1 21.414840 21.414840 47.112648
10957  1 21.414840 21.414840 49.967960
10958  1 21.414840 21.414840 52.823272
10959  1 21.414840 21.414840 55.678584
10960  1 21.414840 24.270152  1.427656
10961  1 21.414840 24.270152  4.282968
10962  1 21.414840 24.270152  7.138280
10963  1 21.414840 24.270152  9.993592
10964  1 21.414840 24.270152 12.848904
10965  1 21.414840 24.270152 15.704216
10966  1 21.414840 24.270152 18.559528
10967  1 21.414840 24.270152 21.414840
10968  1 21.414840 24.270152 24.270152
10969  1 21.414840 24.270152 27.125464
10970  1 21.414840 24.270152 29.980776
10971  1 21.414840 24.270152 32.836088
10972  1 21.414840 24.270152 35.691400
10973  1 21.414840 24.270152 38.546712
10974  1 21.414840 24.270152 41.402024
10975  1 21.414840 24.270152 44.257336
10976  1 21.414840 24.270152 47.112648
10977  1 21.414840 24.270152 49.967960
10978  1 21.414840 24.270152 52.823272
10979  1 21.414840 24.270152 55.678584
10980  1 21.414840 27.125464  1.427656
10981  1 21.414840 27.125464  4.282968
10982  1 21.414840 27.125464  7.138280
10983  1 21.414840 27.125464  9.993592
10984  1 21.414840 27.125464 12.848904
10985  1 21.414840 27.125464 15.704216
10986  1 21.414840 27.125464 18.559528
10987  1 21.414840 27.125464 21.414840
10988  1 21.414840 27.125464 24.270152
10989  1 21.414840 27.125464 27.125464
10990  1 21.414840 27.125464 29.980776
10991  1 21.414840 27.125464 32.836088
10992  1 21.414840 27.125464 35.691400
10993  1 21.414840 27.125464 38.546712
10994  1 21.414840 27.125464 41.402024
10995  1 21.414840 27.125464 44.257336
10996  1 21.414840 27.125464 47.112648
10997  1 21.414840 27.125464 49.967960
10998  1 21.414840 27.125464 52.823272
10999  1 21.414840 27.125464 55.678584
11000  1 21.414840 29.980776  1.427656
11001  1 21.414840 29.980776  4.282968
11002  1 21.414840 29.980776  7.138280
11003  1 21.414840 29.980776  9.993592
11004  1 21.414840 29.980776 12.848904
11005  1 21.414840 29.980776 15.704216
11006  1 21.414840 29.980776 18.559528
11007  1 21.414840 29.980776 21.414840
11008  1 21.414840 29.980776 24.270152
11009  1 21.414840 29.980776 27.125464
11010  1 21.414840 29.980776 29.980776
11011  1 21.414840 29.980776 32.836088
11012  1 21.414840 29.980776 35.691400
11013  1 21.414840 29.980776 38.546712
11014  1 21.414840 29.980776 41.402024
11015  1 21.414840 29.980776 44.257336
11016  1 21.414840 29.980776 47.112648
11017  1 21.414840 29.980776 49.967960
11018  1 21.414840 29.980776 52.823272
11019  1 21.414840 29.980776 55.678584
11020  1 21.414840 32.836088  1.427656
11021  1 21.414840 32.836088  4.282968
11022  1 21.414840 32.836088  7.138280
11023  1 21.414840 32.836088  9.993592
11024  1 21.414840 32.836088 12.848904
11025  1 21.414840 32.836088 15.704216
11026  1 21.414840 32.836088 18.559528
11027  1 21.414840 32.836088 21.414840
11028  1 21.414840 32.836088 24.270152
11029  1 21.414840 32.836088 27.125464
11030  1 21.414840 32.836088 29.980776
11031  1 21.414840 32.836088 32.836088
11032  1 21.414840 32.836088 35.691400
11033  1 21.414840 32.836088 38.546712
11034  1 21.414840 32.836088 41.402024
11035  1 21.414840 32.836088 44.257336
11036  1 21.414840 32.836088 47.112648
11037  1 21.414840 32.836088 49.967960
11038  1 21.414840 32.836088 52.823272
11039  1 21.414840 32.836088 55.678584
11040  1 21.414840 35.691400  1.427656
11041  1 21.414840 35.691400  4.282968
11042  1 21.414840 35.691400  7.138280
11043  1 21.414840 35.691400  9.993592
11044  1 21.414840 35.691400 12.848904
11045  1 21.414840 35.691400 15.704216
11046  1 21.414840 35.691400 18.559528
11047  1 21.414840 35.691400 21.414840
11048  1 21.414840 35.691400 24.270152
11049  1 21.414840 35.691400 27.125464
11050  1 21.414840 35.691400 29.980776
11051  1 21.414840 35.691400 32.836088
11052  1 21.414840 35.691400 35.691400
11053  1 21.414840 35.691400 38.546712
11054  1 21.414840 35.691400 41.402024
11055  1 21.414840 35.691400 44.257336
11056  1 21.414840 35.691400 47.112648
11057  1 21.414840 35.691400 49.967960
11058  1 21.414840 35.691400 52.823272
11059  1 21.414840 35.691400 55.678584
11060  1 21.414840 38.546712  1.427656
11061  1 21.414840 38.546712  4.282968
11062  1 21.414840 38.546712  7.138280
11063  1 21.414840 38.546712  9.993592
11064  1 21.414840 38.546712 12.848904
11065  1 21.414840 38.546712 15.704216
11066  1 21.414840 38.546712 18.559528
11067  1 21.414840 38.546712 21.414840
11068  1 21.414840 38.546712 24.270152
11069  1 21.414840 38.546712 27.125464
11070  1 21.414840 38.546712 29.980776
11071  1 21.414840 38.546712 32.836088
11072  1 21.414840 38.546712 35.691400
11073  1 21.414840 38.546712 38.546712
11074  1 21.414840 38.546712 41.402024
11075  1 21.414840 38.546712 44.257336
11076  1 21.414840 38.546712 47.112648
11077  1 21.414840 38.546712 49.967960
11078  1 21.414840 38.546712 52.823272
11079  1 21.414840 38.546712 55.678584
11080  1 21.414840 41.402024  1.427656
11081  1 21.414840 41.402024  4.282968
11082  1 21.414840 41.402024  7.138280
11083  1 21.414840 41.402024  9.993592
11084  1 21.414840 41.402024 12.848904
11085  1 21.414840 41.402024 15.704216
11086  1 21.414840 41.402024 18.559528
11087  1 21.414840 41.402024 21.414840
11088  1 21.414840 41.402024 24.270152
11089  1 21.414840 41.402024 27.125464
11090  1 21.414840 41.402024 29.980776
11091  1 21.414840 41.402024 32.836088
11092  1 21.414840 41.402024 35.691400
11093  1 21.414840 41.402024 38.546712
11094  1 21.414840 41.402024 41.402024
11095  1 21.414840 41.402024 44.257336
11096  1 21.414840 41.402024 47.112648
11097  1 21.414840 41.402024 49.967960
11098  1 21.414840 41.402024 52.823272
11099  1 21.414840 41.402024 55.678584
11100  1 21.414840 44.257336  1.427656
11101  1 21.414840 44.257336  4.282968
11102  1 21.414840 44.257336  7.138280
11103  1 21.414840 44.257336  9.993592
11104  1 21.414840 44.257336 12.848904
11105  1 21.414840 44.257336 15.704216
11106  1 21.414840 44.257336 18.559528
11107  1 21.414840 44.257336 21.414840
11108  1 21.414840 44.257336 24.270152
11109  1 21.414840 44.257336 27.125464
11110  1 21.414840 44.257336 29.980776
11111  1 21.414840 44.257336 32.836088
11112  1 21.414840 44.257336 35.691400
11113  1 21.414840 44.257336 38.546712
11114  1 21.414840 44.257336 41.402024
11115  1 21.414840 44.257336 44.257336
11116  1 21.414840 44.257336 47.112648
11117  1 21.414840 44.257336 49.967960
11118  1 21.414840 44.257336 52.823272
11119  1 21.414840 44.257336 55.678584
11120  1 21.414840 47.112648  1.427656
11121  1 21.414840 47.112648  4.282968
11122  1 21.414840 47.112648  7.138280
11123  1 21.414840 47.112648  9.993592
11124  1 21.414840 47.112648 12.848904
11125  1 21.414840 47.112648 15.704216
11126  1 21.414840 47.112648 18.559528
11127  1 21.414840 47.112648 21.414840
11128  1 21.414840 47.112648 24.270152
11129  1 21.414840 47.112648 27.125464
11130  1 21.414840 47.112648 29.980776
11131  1 21.414840 47.112648 32.836088
11132  1 21.414840 47.112648 35.691400
11133  1 21.414840 47.112648 38.546712
11134  1 21.414840 47.112648 41.402024
11135  1 21.414840 47.112648 44.257336
11136  1 21.414840 47.112648 47.112648
11137  1 21.414840 47.112648 49.967960
11138  1 21.414840 47.112648 52.823272
11139  1 21.414840 47.112648 55.678584
11140  1 21.414840 49.967960  1.427656
11141  1 21.414840 49.967960  4.282968
11142  1 21.414840 49.967960  7.138280
11143  1 21.414840 49.967960  9.993592
11144  1 21.414840 49.967960 12.848904
11145  1 21.414840 49.967960 15.704216
11146  1 21.414840 49.967960 18.559528
11147  1 21.414840 49.967960 21.414840
11148  1 21.414840 49.967960 24.270152
11149  1 21.414840 49.967960 27.125464
11150  1 21.414840 49.967960 29.980776
11151  1 21.414840 49.967960 32.836088
11152  1 21.414840 49.967960 35.691400
11153  1 21.414840 49.967960 38.546712
11154  1 21.414840 49.967960 41.402024
11155  1 21.414840 49.967960 44.257336
11156  1 21.414840 49.967960 47.112648
11157  1 21.414840 49.967960 49.967960
11158  1 21.414840 49.967960 52.823272
11159  1 21.414840 49.967960 55.678584
11160  1 21.414840 52.823272  1.427656
11161  1 21.414840 52.823272  4.282968
11162  1 21.414840 52.823272  7.138280
11163  1 21.414840 52.823272  9.993592
11164  1 21.414840 52.823272 12.848904
11165  1 21.414840 52.823272 15.704216
11166  1 21.414840 52.823272 18.559528
11167  1 21.414840 52.823272 21.414840
11168  1 21.414840 52.823272 24.270152
11169  1 21.414840 52.823272 27.125464
11170  1 21.414840 52.823272 29.980776
11171  1 21.414840 52.823272 32.836088
11172  1 21.414840 52.823272 35.691400
11173  1 21.414840 52.823272 38.546712
11174  1 21.414840 52.823272 41.402024
11175  1 21.414840 52.823272 44.257336
11176  1 21.414840 52.823272 47.112648
11177  1 21.414840 52.823272 49.967960
11178  1 21.414840 52.823272 52.823272
11179  1 21.414840 52.823272 55.678584
11180  1 21.414840 55.678584  1.427656
11181  1 21.414840 55.678584  4.282968
11182  1 21.414840 55.678584  7.138280
11183  1 21.414840 55.678584  9.993592
11184  1 21.414840 55.678584 12.848904
11185  1 21.414840 55.678584 15.704216
11186  1 21.414840 55.678584 18.559528
11187  1 21.414840 55.678584 21.414840
11188  1 21.414840 55.678584 24.270152
11189  1 21.414840 55.678584 27.125464
11190  1 21.414840 55.678584 29.980776
11191  1 21.414840 55.678584 32.836088
11192  1 21.414840 55.678584 35.691400
11193  1 21.414840 55.678584 38.546712
11194  1 21.414840 55.678584 41.402024
11195  1 21.414840 55.678584 44.257336
11196  1 21.414840 55.678584 47.112648
11197  1 21.414840 55.678584 49.967960
11198  1 21.414840 55.678584 52.823272
11199  1 21.414840 55.678584 55.678584
11200  1 24.270152  1.427656  1.427656
11201  1 24.270152  1.427656  4.282968
11202  1 24.270152  1.427656  7.138280
11203  1 24.270152  1.427656  9.993592
11204  1 24.270152  1.427656 12.848904
11205  1 24.270152  1.427656 15.704216
11206  1 24.270152  1.427656 18.559528
11207  1 24.270152  1.427656 21.414840
11208  1 24.270152  1.427656 24.270152
11209  1 24.270152  1.427656 27.125464
11210  1 24.270152  1.427656 29.980776
11211  1 24.270152  1.427656 32.836088
11212  1 24.270152  1.427656 35.691400
11213  1 24.270152  1.427656 38.546712
11214  1 24.270152  1.427656 41.402024
11215  1 24.270152  1.427656 44.257336
11216  1 24.270152  1.427656 47.112648
11217  1 24.270152  1.427656 49.967960
11218  1 24.270152  1.427656 52.823272
11219  1 24.270152  1.427656 55.678584
11220  1 24.270152  4.282968  1.427656
11221  1 24.270152  4.282968  4.282968
11222  1 24.270152  4.282968  7.138280
11223  1 24.270152  4.282968  9.993592
11224  1 24.270152  4.282968 12.848904
11225  1 24.270152  4.282968 15.704216
11226  1 24.270152  4.282968 18.559528
11227  1 24.270152  4.282968 21.414840
11228  1 24.270152  4.282968 24.270152
11229  1 24.270152  4.282968 27.125464
11230  1 24.270152  4.282968 29.980776
11231  1 24.270152  4.282968 32.836088
11232  1 24.270152  4.282968 35.691400
11233  1 24.270152  4.282968 38.546712
11234  1 24.270152  4.282968 41.402024
11235  1 24.270152  4.282968 44.257336
11236  1 24.270152  4.282968 47.112648
11237  1 24.270152  4.282968 49.967960
11238  1 24.270152  4.282968 52.823272
11239  1 24.270152  4.282968 55.678584
11240  1 24.270152  7.138280  1.427656
11241  1 24.270152  7.138280  4.282968
11242  1 24.270152  7.138280  7.138280
11243  1 24.270152  7.138280  9.993592
11244  1 24.270152  7.138280 12.848904
11245  1 24.270152  7.138280 15.704216
11246  1 24.270152  7.138280 18.559528
11247  1 24.270152  7.138280 21.414840
11248  1 24.270152  7.138280 24.270152
11249  1 24.270152  7.138280 27.125464
11250  1 24.270152  7.138280 29.980776
11251  1 24.270152  7.138280 32.836088
11252  1 24.270152  7.138280 35.691400
11253  1 24.270152  7.138280 38.546712
11254  1 24.270152  7.138280 41.402024
11255  1 24.270152  7.138280 44.257336
11256  1 24.270152  7.138280 47.112648
11257  1 24.270152  7.138280 49.967960
11258  1 24.270152  7.138280 52.823272
11259  1 24.270152  7.138280 55.678584
11260  1 24.270152  9.993592  1.427656
11261  1 24.270152  9.993592  4.282968
11262  1 24.270152  9.993592  7.138280
11263  1 24.270152  9.993592  9.993592
11264  1 24.270152  9.993592 12.848904
11265  1 24.270152  9.993592 15.704216
11266  1 24.270152  9.993592 18.559528
11267  1 24.270152  9.993592 21.414840
11268  1 24.270152  9.993592 24.270152
11269  1 24.270152  9.993592 27.125464
11270  1 24.270152  9.993592 29.980776
11271  1 24.270152  9.993592 32.836088
11272  1 24.270152  9.993592 35.691400
11273  1 24.270152  9.993592 38.546712
11274  1 24.270152  9.993592 41.402024
11275  1 24.270152  9.993592 44.257336
11276  1 24.270152  9.993592 47.112648
11277  1 24.270152  9.993592 49.967960
11278  1 24.270152  9.993592 52.823272
11279  1 24.270152  9.993592 55.678584
11280  1 24.270152 12.848904  1.427656
11281  1 24.270152 12.848904  4.282968
11282  1 24.270152 12.848904  7.138280
11283  1 24.270152 12.848904  9.993592
11284  1 24.270152 12.848904 12.848904
11285  1 24.270152 12.848904 15.704216
11286  1 24.270152 12.848904 18.559528
11287  1 24.270152 12.848904 21.414840
11288  1 24.270152 12.848904 24.270152
11289  1 24.270152 12.848904 27.125464
11290  1 24.270152 12.848904 29.980776
11291  1 24.270152 12.848904 32.836088
11292  1 24.270152 12.848904 35.691400
11293  1 24.270152 12.848904 38.546712
11294  1 24.270152 12.848904 41.402024
11295  1 24.270152 12.848904 44.257336
11296  1 24.270152 12.848904 47.112648
11297  1 24.270152 12.848904 49.967960
11298  1 24.270152 12.848904 52.823272
11299  1 24.270152 12.848904 55.678584
11300  1 24.270152 15.704216  1.427656
11301  1 24.270152 15.704216  4.282968
11302  1 24.270152 15.704216  7.138280
11303  1 24.270152 15.704216  9.993592
11304  1 24.270152 15.704216 12.848904
11305  1 24.270152 15.704216 15.704216
11306  1 24.270152 15.704216 18.559528
11307  1 24.270152 15.704216 21.414840
11308  1 24.270152 15.704216 24.270152
11309  1 24.270152 15.704216 27.125464
11310  1 24.270152 15.704216 29.980776
11311  1 24.270152 15.704216 32.836088
11312  1 24.270152 15.704216 35.691400
11313  1 24.270152 15.704216 38.546712
11314  1 24.270152 15.704216 41.402024
11315  1 24.270152 15.704216 44.257336
11316  1 24.270152 15.704216 47.112648
11317  1 24.270152 15.704216 49.967960
11318  1 24.270152 15.704216 52.823272
11319  1 24.270152 15.704216 55.678584
11320  1 24.270152 18.559528  1.427656
11321  1 24.270152 18.559528  4.282968
11322  1 24.270152 18.559528  7.138280
11323  1 24.270152 18.559528  9.993592
11324  1 24.270152 18.559528 12.848904
11325  1 24.270152 18.559528 15.704216
11326  1 24.270152 18.559528 18.559528
11327  1 24.270152 18.559528 21.414840
11328  1 24.270152 18.559528 24.270152
11329  1 24.270152 18.559528 27.125464
11330  1 24.270152 18.559528 29.980776
11331  1 24.270152 18.559528 32.836088
11332  1 24.270152 18.559528 35.691400
11333  1 24.270152 18.559528 38.546712
11334  1 24.270152 18.559528 41.402024
11335  1 24.270152 18.559528 44.257336
11336  1 24.270152 18.559528 47.112648
11337  1 24.270152 18.559528 49.967960
11338  1 24.270152 18.559528 52.823272
11339  1 24.270152 18.559528 55.678584
11340  1 24.270152 21.414840  1.427656
11341  1 24.270152 21.414840  4.282968
11342  1 24.270152 21.414840  7.138280
11343  1 24.270152 21.414840  9.993592
11344  1 24.270152 21.414840 12.848904
11345  1 24.270152 21.414840 15.704216
11346  1 24.270152 21.414840 18.559528
11347  1 24.270152 21.414840 21.414840
11348  1 24.270152 21.414840 24.270152
11349  1 24.270152 21.414840 27.125464
11350  1 24.270152 21.414840 29.980776
11351  1 24.270152 21.414840 32.836088
11352  1 24.270152 21.414840 35.691400
11353  1 24.270152 21.414840 38.546712
11354  1 24.270152 21.414840 41.402024
11355  1 24.270152 21.414840 44.257336
11356  1 24.270152 21.414840 47.112648
11357  1 24.270152 21.414840 49.967960
11358  1 24.270152 21.414840 52.823272
11359  1 24.270152 21.414840 55.678584
11360  1 24.270152 24.270152  1.427656
11361  1 24.270152 24.270152  4.282968
11362  1 24.270152 24.270152  7.138280
11363  1 24.270152 24.270152  9.993592
11364  1 24.270152 24.270152 12.848904
11365  1 24.270152 24.270152 15.704216
11366  1 24.270152 24.270152 18.559528
11367  1 24.270152 24.270152 21.414840
11368  1 24.270152 24.270152 24.270152
11369  1 24.270152 24.270152 27.125464
11370  1 24.270152 24.270152 29.980776
11371  1 24.270152 24.270152 32.836088
11372  1 24.270152 24.270152 35.691400
11373  1 24.270152 24.270152 38.546712
11374  1 24.270152 24.270152 41.402024
11375  1 24.270152 24.270152 44.257336
11376  1 24.270152 24.270152 47.112648
11377  1 24.270152 24.270152 49.967960
11378  1 24.270152 24.270152 52.823272
11379  1 24.270152 24.270152 55.678584
11380  1 24.270152 27.125464  1.427656
11381  1 24.270152 27.125464  4.282968
11382  1 24.270152 27.125464  7.138280
11383  1 24.270152 27.125464  9.993592
11384  1 24.270152 27.125464 12.848904
11385  1 24.270152 27.125464 15.704216
11386  1 24.270152 27.125464 18.559528
11387  1 24.270152 27.125464 21.414840
11388  1 24.270152 27.125464 24.270152
11389  1 24.270152 27.125464 27.125464
11390  1 24.270152 27.125464 29.980776
11391  1 24.270152 27.125464 32.836088
11392  1 24.270152 27.125464 35.691400
11393  1 24.270152 27.125464 38.546712
11394  1 24.270152 27.125464 41.402024
11395  1 24.270152 27.125464 44.257336
11396  1 24.270152 27.125464 47.112648
11397  1 24.270152 27.125464 49.967960
11398  1 24.270152 27.125464 52.823272
11399  1 24.270152 27.125464 55.678584
11400  1 24.270152 29.980776  1.427656
11401  1 24.270152 29.980776  4.282968
11402  1 24.270152 29.980776  7.138280
11403  1 24.270152 29.980776  9.993592
11404  1 24.270152 29.980776 12.848904
11405  1 24.270152 29.980776 15.704216
11406  1 24.270152 29.980776 18.559528
11407  1 24.270152 29.980776 21.414840
11408  1 24.270152 29.980776 24.270152
11409  1 24.270152 29.980776 27.125464
11410  1 24.270152 29.980776 29.980776
11411  1 24.270152 29.980776 32.836088
11412  1 24.270152 29.980776 35.691400
11413  1 24.270152 29.980776 38.546712
11414  1 24.270152 29.980776 41.402024
11415  1 24.270152 29.980776 44.257336
11416  1 24.270152 29.980776 47.112648
11417  1 24.270152 29.980776 49.967960
11418  1 24.270152 29.980776 52.823272
11419  1 24.270152 29.980776 55.678584
11420  1 24.270152 32.836088  1.427656
11421  1 24.270152 32.836088  4.282968
11422  1 24.270152 32.836088  7.138280
11423  1 24.270152 32.836088  9.993592
11424  1 24.270152 32.836088 12.848904
11425  1 24.270152 32.836088 15.704216
11426  1 24.270152 32.836088 18.559528
11427  1 24.270152 32.836088 21.414840
11428  1 24.270152 32.836088 24.270152
11429  1 24.270152 32.836088 27.125464
11430  1 24.270152 32.836088 29.980776
11431  1 24.270152 32.836088 32.836088
11432  1 24.270152 32.836088 35.691400
11433  1 24.270152 32.836088 38.546712
11434  1 24.270152 32.836088 41.402024
11435  1 24.270152 32.836088 44.257336
11436  1 24.270152 32.836088 47.112648
11437  1 24.270152 32.836088 49.967960
11438  1 24.270152 32.836088 52.823272
11439  1 24.270152 32.836088 55.678584
11440  1 24.270152 35.691400  1.427656
11441  1 24.270152 35.691400  4.282968
11442  1 24.270152 35.691400  7.138280
11443  1 24.270152 35.691400  9.993592
11444  1 24.270152 35.691400 12.848904
11445  1 24.270152 35.691400 15.704216
11446  1 24.270152 35.691400 18.559528
11447  1 24.270152 35.691400 21.414840
11448  1 24.270152 35.691400 24.270152
11449  1 24.270152 35.691400 27.125464
11450  1 24.270152 35.691400 29.980776
11451  1 24.270152 35.691400 32.836088
11452  1 24.270152 35.691400 35.691400
11453  1 24.270152 35.691400 38.546712
11454  1 24.270152 35.691400 41.402024
11455  1 24.270152 35.691400 44.257336
11456  1 24.270152 35.691400 47.112648
11457  1 24.270152 35.691400 49.967960
11458  1 24.270152 35.691400 52.823272
11459  1 24.270152 35.691400 55.678584
11460  1 24.270152 38.546712  1.427656
11461  1 24.270152 38.546712  4.282968
11462  1 24.270152 38.546712  7.138280
11463  1 24.270152 38.546712  9.993592
11464  1 24.270152 38.546712 12.848904
11465  1 24.270152 38.546712 15.704216
11466  1 24.270152 38.546712 18.559528
11467  1 24.270152 38.546712 21.414840
11468  1 24.270152 38.546712 24.270152
11469  1 24.270152 38.546712 27.125464
11470  1 24.270152 38.546712 29.980776
11471  1 24.270152 38.546712 32.836088
11472  1 24.270152 38.546712 35.691400
11473  1 24.270152 38.546712 38.546712
11474  1 24.270152 38.546712 41.402024
11475  1 24.270152 38.546712 44.257336
11476  1 24.270152 38.546712 47.112648
11477  1 24.270152 38.546712 49.967960
11478  1 24.270152 38.546712 52.823272
11479  1 24.270152 38.546712 55.678584
11480  1 24.270152 41.402024  1.427656
11481  1 24.270152 41.402024  4.282968
11482  1 24.270152 41.402024  7.138280
11483  1 24.270152 41.402024  9.993592
11484  1 24.270152 41.402024 12.848904
11485  1 24.270152 41.402024 15.704216
11486  1 24.270152 41.402024 18.559528
11487  1 24.270152 41.402024 21.414840
11488  1 24.270152 41.402024 24.270152
11489  1 24.270152 41.402024 27.125464
11490  1 24.270152 41.402024 29.980776
11491  1 24.270152 41.402024 32.836088
11492  1 24.270152 41.402024 35.691400
11493  1 24.270152 41.402024 38.546712
11494  1 24.270152 41.402024 41.402024
11495  1 24.270152 41.402024 44.257336
11496  1 24.270152 41.402024 47.112648
11497  1 24.270152 41.402024 49.967960
11498  1 24.270152 41.402024 52.823272
11499  1 24.270152 41.402024 55.678584
11500  1 24.270152 44.257336  1.427656
11501  1 24.270152 44.257336  4.282968
11502  1 24.270152 44.257336  7.138280
11503  1 24.270152 44.257336  9.993592
11504  1 24.270152 44.257336 12.848904
11505  1 24.270152 44.257336 15.704216
11506  1 24.270152 44.257336 18.559528
11507  1 24.270152 44.257336 21.414840
11508  1 24.270152 44.257336 24.270152
11509  1 24.270152 44.257336 27.125464
11510  1 24.270152 44.257336 29.980776
11511  1 24.270152 44.257336 32.836088
11512  1 24.270152 44.257336 35.691400
11513  1 24.270152 44.257336 38.546712
11514  1 24.270152 44.257336 41.402024
11515  1 24.270152 44.257336 44.257336
11516  1 24.270152 44.257336 47.112648
11517  1 24.270152 44.257336 49.967960
11518  1 24.270152 44.257336 52.823272
11519  1 24.270152 44.257336 55.678584
11520  1 24.270152 47.112648  1.427656
11521  1 24.270152 47.112648  4.282968
11522  1 24.270152 47.112648  7.138280
11523  1 24.270152 47.112648  9.993592
11524  1 24.270152 47.112648 12.848904
11525  1 24.270152 47.112648 15.704216
11526  1 24.270152 47.112648 18.559528
11527  1 24.270152 47.112648 21.414840
11528  1 24.270152 47.112648 24.270152
11529  1 24.270152 47.112648 27.125464
11530  1 24.270152 47.112648 29.980776
11531  1 24.270152 47.112648 32.836088
11532  1 24.270152 47.112648 35.691400
11533  1 24.270152 47.112648 38.546712
11534  1 24.270152 47.112648 41.402024
11535  1 24.270152 47.112648 44.257336
11536  1 24.270152 47.112648 47.112648
11537  1 24.270152 47.112648 49.967960
11538  1 24.270152 47.112648 52.823272
11539  1 24.270152 47.112648 55.678584
11540  1 24.270152 49.967960  1.427656
11541  1 24.270152 49.967960  4.282968
11542  1 24.270152 49.967960  7.138280
11543  1 24.270152 49.967960  9.993592
11544  1 24.270152 49.967960 12.848904
11545  1 24.270152 49.967960 15.704216
11546  1 24.270152 49.967960 18.559528
11547  1 24.270152 49.967960 21.414840
11548  1 24.270152 49.967960 24.270152
11549  1 24.270152 49.967960 27.125464
11550  1 24.270152 49.967960 29.980776
11551  1 24.270152 49.967960 32.836088
11552  1 24.270152 49.967960 35.691400
11553  1 24.270152 49.967960 38.546712
11554  1 24.270152 49.967960 41.402024
11555  1 24.270152 49.967960 44.257336
11556  1 24.270152 49.967960 47.112648
11557  1 24.270152 49.967960 49.967960
11558  1 24.270152 49.967960 52.823272
11559  1 24.270152 49.967960 55.678584
11560  1 24.270152 52.823272  1.427656
11561  1 24.270152 52.823272  4.282968
11562  1 24.270152 52.823272  7.138280
11563  1 24.270152 52.823272  9.993592
11564  1 24.270152 52.823272 12.848904
11565  1 24.270152 52.823272 15.704216
11566  1 24.270152 52.823272 18.559528
11567  1 24.270152 52.823272 21.414840
11568  1 24.270152 52.823272 24.270152
11569  1 24.270152 52.823272 27.125464
11570  1 24.270152 52.823272 29.980776
11571  1 24.270152 52.823272 32.836088
11572  1 24.270152 52.823272 35.691400
11573  1 24.270152 52.823272 38.546712
11574  1 24.270152 52.823272 41.402024
11575  1 24.270152 52.823272 44.257336
11576  1 24.270152 52.823272 47.112648
11577  1 24.270152 52.823272 49.967960
11578  1 24.270152 52.823272 52.823272
11579  1 24.270152 52.823272 55.678584
11580  1 24.270152 55.678584  1.427656
11581  1 24.270152 55.678584  4.282968
11582  1 24.270152 55.678584  7.138280
11583  1 24.270152 55.678584  9.993592
11584  1 24.270152 55.678584 12.848904
11585  1 24.270152 55.678584 15.704216
11586  1 24.270152 55.678584 18.559528
11587  1 24.270152 55.678584 21.414840
11588  1 24.270152 55.678584 24.270152
11589  1 24.270152 55.678584 27.125464
11590  1 24.270152 55.678584 29.980776
11591  1 24.270152 55.678584 32.836088
11592  1 24.270152 55.678584 35.691400
11593  1 24.270152 55.678584 38.546712
11594  1 24.270152 55.678584 41.402024
11595  1 24.270152 55.678584 44.257336
11596  1 24.270152 55.678584 47.112648
11597  1 24.270152 55.678584 49.967960
11598  1 24.270152 55.678584 52.823272
11599  1 24.270152 55.678584 55.678584
11600  1 27.125464  1.427656  1.427656
11601  1 27.125464  1.427656  4.282968
11602  1 27.125464  1.427656  7.138280
11603  1 27.125464  1.427656  9.993592
11604  1 27.125464  1.427656 12.848904
11605  1 27.125464  1.427656 15.704216
11606  1 27.125464  1.427656 18.559528
11607  1 27.125464  1.427656 21.414840
11608  1 27.125464  1.427656 24.270152
11609  1 27.125464  1.427656 27.125464
11610  1 27.125464  1.427656 29.980776
11611  1 27.125464  1.427656 32.836088
11612  1 27.125464  1.427656 35.691400
11613  1 27.125464  1.427656 38.546712
11614  1 27.125464  1.427656 41.402024
11615  1 27.125464  1.427656 44.257336
11616  1 27.125464  1.427656 47.112648
11617  1 27.125464  1.427656 49.967960
11618  1 27.125464  1.427656 52.823272
11619  1 27.125464  1.427656 55.678584
11620  1 27.125464  4.282968  1.427656
11621  1 27.125464  4.282968  4.282968
11622  1 27.125464  4.282968  7.138280
11623  1 27.125464  4.282968  9.993592
11624  1 27.125464  4.282968 12.848904
11625  1 27.125464  4.282968 15.704216
11626  1 27.125464  4.282968 18.559528
11627  1 27.125464  4.282968 21.414840
11628  1 27.125464  4.282968 24.270152
11629  1 27.125464  4.282968 27.125464
11630  1 27.125464  4.282968 29.980776
11631  1 27.125464  4.282968 32.836088
11632  1 27.125464  4.282968 35.691400
11633  1 27.125464  4.282968 38.546712
11634  1 27.125464  4.282968 41.402024
11635  1 27.125464  4.282968 44.257336
11636  1 27.125464  4.282968 47.112648
11637  1 27.125464  4.282968 49.967960
11638  1 27.125464  4.282968 52.823272
11639  1 27.125464  4.282968 55.678584
11640  1 27.125464  7.138280  1.427656
11641  1 27.125464  7.138280  4.282968
11642  1 27.125464  7.138280  7.138280
11643  1 27.125464  7.138280  9.993592
11644  1 27.125464  7.138280 12.848904
11645  1 27.125464  7.138280 15.704216
11646  1 27.125464  7.138280 18.559528
11647  1 27.125464  7.138280 21.414840
11648  1 27.125464  7.138280 24.270152
11649  1 27.125464  7.138280 27.125464
11650  1 27.125464  7.138280 29.980776
11651  1 27.125464  7.138280 32.836088
11652  1 27.125464  7.138280 35.691400
11653  1 27.125464  7.138280 38.546712
11654  1 27.125464  7.138280 41.402024
11655  1 27.125464  7.138280 44.257336
11656  1 27.125464  7.138280 47.112648
11657  1 27.125464  7.138280 49.967960
11658  1 27.125464  7.138280 52.823272
11659  1 27.125464  7.138280 55.678584
11660  1 27.125464  9.993592  1.427656
11661  1 27.125464  9.993592  4.282968
11662  1 27.125464  9.993592  7.138280
11663  1 27.125464  9.993592  9.993592
11664  1 27.125464  9.993592 12.848904
11665  1 27.125464  9.993592 15.704216
11666  1 27.125464  9.993592 18.559528
11667  1 27.125464  9.993592 21.414840
11668  1 27.125464  9.993592 24.270152
11669  1 27.125464  9.993592 27.125464
11670  1 27.125464  9.993592 29.980776
11671  1 27.125464  9.993592 32.836088
11672  1 27.125464  9.993592 35.691400
11673  1 27.125464  9.993592 38.546712
11674  1 27.125464  9.993592 41.402024
11675  1 27.125464  9.993592 44.257336
11676  1 27.125464  9.993592 47.112648
11677  1 27.125464  9.993592 49.967960
11678  1 27.125464  9.993592 52.823272
11679  1 27.125464  9.993592 55.678584
11680  1 27.125464 12.848904  1.427656
11681  1 27.125464 12.848904  4.282968
11682  1 27.125464 12.848904  7.138280
11683  1 27.125464 12.848904  9.993592
11684  1 27.125464 12.848904 12.848904
11685  1 27.125464 12.848904 15.704216
11686  1 27.125464 12.848904 18.559528
11687  1 27.125464 12.848904 21.414840
11688  1 27.125464 12.848904 24.270152
11689  1 27.125464 12.848904 27.125464
11690  1 27.125464 12.848904 29.980776
11691  1 27.125464 12.848904 32.836088
11692  1 27.125464 12.848904 35.691400
11693  1 27.125464 12.848904 38.546712
11694  1 27.125464 12.848904 41.402024
11695  1 27.125464 12.848904 44.257336
11696  1 27.125464 12.848904 47.112648
11697  1 27.125464 12.848904 49.967960
11698  1 27.125464 12.848904 52.823272
11699  1 27.125464 12.848904 55.678584
11700  1 27.125464 15.704216  1.427656
11701  1 27.125464 15.704216  4.282968
11702  1 27.125464 15.704216  7.138280
11703  1 27.125464 15.704216  9.993592
11704  1 27.125464 15.704216 12.848904
11705  1 27.125464 15.704216 15.704216
11706  1 27.125464 15.704216 18.559528
11707  1 27.125464 15.704216 21.414840
11708  1 27.125464 15.704216 24.270152
11709  1 27.125464 15.704216 27.125464
11710  1 27.125464 15.704216 29.980776
11711  1 27.125464 15.704216 32.836088
11712  1 27.125464 15.704216 35.691400
11713  1 27.125464 15.704216 38.546712
11714  1 27.125464 15.704216 41.402024
11715  1 27.125464 15.704216 44.257336
11716  1 27.125464 15.704216 47.112648
11717  1 27.125464 15.704216 49.967960
11718  1 27.125464 15.704216 52.823272
11719  1 27.125464 15.704216 55.678584
11720  1 27.125464 18.559528  1.427656
11721  1 27.125464 18.559528  4.282968
11722  1 27.125464 18.559528  7.138280
11723  1 27.125464 18.559528  9.993592
11724  1 27.125464 18.559528 12.848904
11725  1 27.125464 18.559528 15.704216
11726  1 27.125464 18.559528 18.559528
11727  1 27.125464 18.559528 21.414840
11728  1 27.125464 18.559528 24.270152
11729  1 27.125464 18.559528 27.125464
11730  1 27.125464 18.559528 29.980776
11731  1 27.125464 18.559528 32.836088
11732  1 27.125464 18.559528 35.691400
11733  1 27.125464 18.559528 38.546712
11734  1 27.125464 18.559528 41.402024
11735  1 27.125464 18.559528 44.257336
11736  1 27.125464 18.559528 47.112648
11737  1 27.125464 18.559528 49.967960
11738  1 27.125464 18.559528 52.823272
11739  1 27.125464 18.559528 55.678584
11740  1 27.125464 21.414840  1.427656
11741  1 27.125464 21.414840  4.282968
11742  1 27.125464 21.414840  7.138280
11743  1 27.125464 21.414840  9.993592
11744  1 27.125464 21.414840 12.848904
11745  1 27.125464 21.414840 15.704216
11746  1 27.125464 21.414840 18.559528
11747  1 27.125464 21.414840 21.414840
11748  1 27.125464 21.414840 24.270152
11749  1 27.125464 21.414840 27.125464
11750  1 27.125464 21.414840 29.980776
11751  1 27.125464 21.414840 32.836088
11752  1 27.125464 21.414840 35.691400
11753  1 27.125464 21.414840 38.546712
11754  1 27.125464 21.414840 41.402024
11755  1 27.125464 21.414840 44.257336
11756  1 27.125464 21.414840 47.112648
11757  1 27.125464 21.414840 49.967960
11758  1 27.125464 21.414840 52.823272
11759  1 27.125464 21.414840 55.678584
11760  1 27.125464 24.270152  1.427656
11761  1 27.125464 24.270152  4.282968
11762  1 27.125464 24.270152  7.138280
11763  1 27.125464 24.270152  9.993592
11764  1 27.125464 24.270152 12.848904
11765  1 27.125464 24.270152 15.704216
11766  1 27.125464 24.270152 18.559528
11767  1 27.125464 24.270152 21.414840
11768  1 27.125464 24.270152 24.270152
11769  1 27.125464 24.270152 27.125464
11770  1 27.125464 24.270152 29.980776
11771  1 27.125464 24.270152 32.836088
11772  1 27.125464 24.270152 35.691400
11773  1 27.125464 24.270152 38.546712
11774  1 27.125464 24.270152 41.402024
11775  1 27.125464 24.270152 44.257336
11776  1 27.125464 24.270152 47.112648
11777  1 27.125464 24.270152 49.967960
11778  1 27.125464 24.270152 52.823272
11779  1 27.125464 24.270152 55.678584
11780  1 27.125464 27.125464  1.427656
11781  1 27.125464 27.125464  4.282968
11782  1 27.125464 27.125464  7.138280
11783  1 27.125464 27.125464  9.993592
11784  1 27.125464 27.125464 12.848904
11785  1 27.125464 27.125464 15.704216
11786  1 27.125464 27.125464 18.559528
11787  1 27.125464 27.125464 21.414840
11788  1 27.125464 27.125464 24.270152
11789  1 27.125464 27.125464 27.125464
11790  1 27.125464 27.125464 29.980776
11791  1 27.125464 27.125464 32.836088
11792  1 27.125464 27.125464 35.691400
11793  1 27.125464 27.125464 38.546712
11794  1 27.125464 27.125464 41.402024
11795  1 27.125464 27.125464 44.257336
11796  1 27.125464 27.125464 47.112648
11797  1 27.125464 27.125464 49.967960
11798  1 27.125464 27.125464 52.823272
11799  1 27.125464 27.125464 55.678584
11800  1 27.125464 29.980776  1.427656
11801  1 27.125464 29.980776  4.282968
11802  1 27.125464 29.980776  7.138280
11803  1 27.125464 29.980776  9.993592
11804  1 27.125464 29.980776 12.848904
11805  1 27.125464 29.980776 15.704216
11806  1 27.125464 29.980776 18.559528
11807  1 27.125464 29.980776 21.414840
11808  1 27.125464 29.980776 24.270152
11809  1 27.125464 29.980776 27.125464
11810  1 27.125464 29.980776 29.980776
11811  1 27.125464 29.980776 32.836088
11812  1 27.125464 29.980776 35.691400
11813  1 27.125464 29.980776 38.546712
11814  1 27.125464 29.980776 41.402024
11815  1 27.125464 29.980776 44.257336
11816  1 27.125464 29.980776 47.112648
11817  1 27.125464 29.980776 49.967960
11818  1 27.125464 29.980776 52.823272
11819  1 27.125464 29.980776 55.678584
11820  1 27.125464 32.836088  1.427656
11821  1 27.125464 32.836088  4.282968
11822  1 27.125464 32.836088  7.138280
11823  1 27.125464 32.836088  9.993592
11824  1 27.125464 32.836088 12.848904
11825  1 27.125464 32.836088 15.704216
11826  1 27.125464 32.836088 18.559528
11827  1 27.125464 32.836088 21.414840
11828  1 27.125464 32.836088 24.270152
11829  1 27.125464 32.836088 27.125464
11830  1 27.125464 32.836088 29.980776
11831  1 27.125464 32.836088 32.836088
11832  1 27.125464 32.836088 35.691400
11833  1 27.125464 32.836088 38.546712
11834  1 27.125464 32.836088 41.402024
11835  1 27.125464 32.836088 44.257336
11836  1 27.125464 32.836088 47.112648
11837  1 27.125464 32.836088 49.967960
11838  1 27.125464 32.836088 52.823272
11839  1 27.125464 32.836088 55.678584
11840  1 27.125464 35.691400  1.427656
11841  1 27.125464 35.691400  4.282968
11842  1 27.125464 35.691400  7.138280
11843  1 27.125464 35.691400  9.993592
11844  1 27.125464 35.691400 12.848904
11845  1 27.125464 35.691400 15.704216
11846  1 27.125464 35.691400 18.559528
11847  1 27.125464 35.691400 21.414840
11848  1 27.125464 35.691400 24.270152
11849  1 27.125464 35.691400 27.125464
11850  1 27.125464 35.691400 29.980776
11851  1 27.125464 35.691400 32.836088
11852  1 27.125464 35.691400 35.691400
11853  1 27.125464 35.691400 38.546712
11854  1 27.125464 35.691400 41.402024
11855  1 27.125464 35.691400 44.257336
11856  1 27.125464 35.691400 47.112648
11857  1 27.125464 35.691400 49.967960
11858  1 27.125464 35.691400 52.823272
11859  1 27.125464 35.691400 55.678584
11860  1 27.125464 38.546712  1.427656
11861  1 27.125464 38.546712  4.282968
11862  1 27.125464 38.546712  7.138280
11863  1 27.125464 38.546712  9.993592
11864  1 27.125464 38.546712 12.848904
11865  1 27.125464 38.546712 15.704216
11866  1 27.125464 38.546712 18.559528
11867  1 27.125464 38.546712 21.414840
11868  1 27.125464 38.546712 24.270152
11869  1 27.125464 38.546712 27.125464
11870  1 27.125464 38.546712 29.980776
11871  1 27.125464 38.546712 32.836088
11872  1 27.125464 38.546712 35.691400
11873  1 27.125464 38.546712 38.546712
11874  1 27.125464 38.546712 41.402024
11875  1 27.125464 38.546712 44.257336
11876  1 27.125464 38.546712 47.112648
11877  1 27.125464 38.546712 49.967960
11878  1 27.125464 38.546712 52.823272
11879  1 27.125464 38.546712 55.678584
11880  1 27.125464 41.402024  1.427656
11881  1 27.125464 41.402024  4.282968
11882  1 27.125464 41.402024  7.138280
11883  1 27.125464 41.402024  9.993592
11884  1 27.125464 41.402024 12.848904
11885  1 27.125464 41.402024 15.704216
11886  1 27.125464 41.402024 18.559528
11887  1 27.125464 41.402024 21.414840
11888  1 27.125464 41.402024 24.270152
11889  1 27.125464 41.402024 27.125464
11890  1 27.125464 41.402024 29.980776
11891  1 27.125464 41.402024 32.836088
11892  1 27.125464 41.402024 35.691400
11893  1 27.125464 41.402024 38.546712
11894  1 27.125464 41.402024 41.402024
11895  1 27.125464 41.402024 44.257336
11896  1 27.125464 41.402024 47.112648
11897  1 27.125464 41.402024 49.967960
11898  1 27.125464 41.402024 52.823272
11899  1 27.125464 41.402024 55.678584
11900  1 27.125464 44.257336  1.427656
11901  1 27.125464 44.257336  4.282968
11902  1 27.125464 44.257336  7.138280
11903  1 27.125464 44.257336  9.993592
11904  1 27.125464 44.257336 12.848904
11905  1 27.125464 44.257336 15.704216
11906  1 27.125464 44.257336 18.559528
11907  1 27.125464 44.257336 21.414840
11908  1 27.125464 44.257336 24.270152
11909  1 27.125464 44.257336 27.125464
11910  1 27.125464 44.257336 29.980776
11911  1 27.125464 44.257336 32.836088
11912  1 27.125464 44.257336 35.691400
11913  1 27.125464 44.257336 38.546712
11914  1 27.125464 44.257336 41.402024
11915  1 27.125464 44.257336 44.257336
11916  1 27.125464 44.257336 47.112648
11917  1 27.125464 44.257336 49.967960
11918  1 27.125464 44.257336 52.823272
11919  1 27.125464 44.257336 55.678584
11920  1 27.125464 47.112648  1.427656
11921  1 27.125464 47.112648  4.282968
11922  1 27.125464 47.112648  7.138280
11923  1 27.125464 47.112648  9.993592
11924  1 27.125464 47.112648 12.848904
11925  1 27.125464 47.112648 15.704216
11926  1 27.125464 47.112648 18.559528
11927  1 27.125464 47.112648 21.414840
11928  1 27.125464 47.112648 24.270152
11929  1 27.125464 47.112648 27.125464
11930  1 27.125464 47.112648 29.980776
11931  1 27.125464 47.112648 32.836088
11932  1 27.125464 47.112648 35.691400
11933  1 27.125464 47.112648 38.546712
11934  1 27.125464 47.112648 41.402024
11935  1 27.125464 47.112648 44.257336
11936  1 27.125464 47.112648 47.112648
11937  1 27.125464 47.112648 49.967960
11938  1 27.125464 47.112648 52.823272
11939  1 27.125464 47.112648 55.678584
11940  1 27.125464 49.967960  1.427656
11941  1 27.125464 49.967960  4.282968
11942  1 27.125464 49.967960  7.138280
11943  1 27.125464 49.967960  9.993592
11944  1 27.125464 49.967960 12.848904
11945  1 27.125464 49.967960 15.704216
11946  1 27.125464 49.967960 18.559528
11947  1 27.125464 49.967960 21.414840
11948  1 27.125464 49.967960 24.270152
11949  1 27.125464 49.967960 27.125464
11950  1 27.125464 49.967960 29.980776
11951  1 27.125464 49.967960 32.836088
11952  1 27.125464 49.967960 35.691400
11953  1 27.125464 49.967960 38.546712
11954  1 27.125464 49.967960 41.402024
11955  1 27.125464 49.967960 44.257336
11956  1 27.125464 49.967960 47.112648
11957  1 27.125464 49.967960 49.967960
11958  1 27.125464 49.967960 52.823272
11959  1 27.125464 49.967960 55.678584
11960  1 27.125464 52.823272  1.427656
11961  1 27.125464 52.823272  4.282968
11962  1 27.125464 52.823272  7.138280
11963  1 27.125464 52.823272  9.993592
11964  1 27.125464 52.823272 12.848904
11965  1 27.125464 52.823272 15.704216
11966  1 27.125464 52.823272 18.559528
11967  1 27.125464 52.823272 21.414840
11968  1 27.125464 52.823272 24.270152
11969  1 27.125464 52.823272 27.125464
11970  1 27.125464 52.823272 29.980776
11971  1 27.125464 52.823272 32.836088
11972  1 27.125464 52.823272 35.691400
11973  1 27.125464 52.823272 38.546712
11974  1 27.125464 52.823272 41.402024
11975  1 27.125464 52.823272 44.257336
11976  1 27.125464 52.823272 47.112648
11977  1 27.125464 52.823272 49.967960
11978  1 27.125464 52.823272 52.823272
11979  1 27.125464 52.823272 55.678584
11980  1 27.125464 55.678584  1.427656
11981  1 27.125464 55.678584  4.282968
11982  1 27.125464 55.678584  7.138280
11983  1 27.125464 55.678584  9.993592
11984  1 27.125464 55.678584 12.848904
11985  1 27.125464 55.678584 15.704216
11986  1 27.125464 55.678584 18.559528
11987  1 27.125464 55.678584 21.414840
11988  1 27.125464 55.678584 24.270152
11989  1 27.125464 55.678584 27.125464
11990  1 27.125464 55.678584 29.980776
11991  1 27.125464 55.678584 32.836088
11992  1 27.125464 55.678584 35.691400
11993  1 27.125464 55.678584 38.546712
11994  1 27.125464 55.678584 41.402024
11995  1 27.125464 55.678584 44.257336
11996  1 27.125464 55.678584 47.112648
11997  1 27.125464 55.678584 49.967960
11998  1 27.125464 55.678584 52.823272
11999  1 27.125464 55.678584 55.678584
12000  1 29.980776  1.427656  1.427656
12001  1 29.980776  1.427656  4.282968
12002  1 29.980776  1.427656  7.138280
12003  1 29.980776  1.427656  9.993592
12004  1 29.980776  1.427656 12.848904
12005  1 29.980776  1.427656 15.704216
12006  1 29.980776  1.427656 18.559528
12007  1 29.980776  1.427656 21.414840
12008  1 29.980776  1.427656 24.270152
12009  1 29.980776  1.427656 27.125464
12010  1 29.980776  1.427656 29.980776
12011  1 29.980776  1.427656 32.836088
12012  1 29.980776  1.427656 35.691400
12013  1 29.980776  1.427656 38.546712
12014  1 29.980776  1.427656 41.402024
12015  1 29.980776  1.427656 44.257336
12016  1 29.980776  1.427656 47.112648
12017  1 29.980776  1.427656 49.967960
12018  1 29.980776  1.427656 52.823272
12019  1 29.980776  1.427656 55.678584
12020  1 29.980776  4.282968  1.427656
12021  1 29.980776  4.282968  4.282968
12022  1 29.980776  4.282968  7.138280
12023  1 29.980776  4.282968  9.993592
12024  1 29.980776  4.282968 12.848904
12025  1 29.980776  4.282968 15.704216
12026  1 29.980776  4.282968 18.559528
12027  1 29.980776  4.282968 21.414840
12028  1 29.980776  4.282968 24.270152
12029  1 29.980776  4.282968 27.125464
12030  1 29.980776  4.282968 29.980776
12031  1 29.980776  4.282968 32.836088
12032  1 29.980776  4.282968 35.691400
12033  1 29.980776  4.282968 38.546712
12034  1 29.980776  4.282968 41.402024
12035  1 29.980776  4.282968 44.257336
12036  1 29.980776  4.282968 47.112648
12037  1 29.980776  4.282968 49.967960
12038  1 29.980776  4.282968 52.823272
12039  1 29.980776  4.282968 55.678584
12040  1 29.980776  7.138280  1.427656
12041  1 29.980776  7.138280  4.282968
12042  1 29.980776  7.138280  7.138280
12043  1 29.980776  7.138280  9.993592
12044  1 29.980776  7.138280 12.848904
12045  1 29.980776  7.138280 15.704216
12046  1 29.980776  7.138280 18.559528
12047  1 29.980776  7.138280 21.414840
12048  1 29.980776  7.138280 24.270152
12049  1 29.980776  7.138280 27.125464
12050  1 29.980776  7.138280 29.980776
12051  1 29.980776  7.138280 32.836088
12052  1 29.980776  7.138280 35.691400
12053  1 29.980776  7.138280 38.546712
12054  1 29.980776  7.138280 41.402024
12055  1 29.980776  7.138280 44.257336
12056  1 29.980776  7.138280 47.112648
12057  1 29.980776  7.138280 49.967960
12058  1 29.980776  7.138280 52.823272
12059  1 29.980776  7.138280 55.678584
12060  1 29.980776  9.993592  1.427656
12061  1 29.980776  9.993592  4.282968
12062  1 29.980776  9.993592  7.138280
12063  1 29.980776  9.993592  9.993592
12064  1 29.980776  9.993592 12.848904
12065  1 29.980776  9.993592 15.704216
12066  1 29.980776  9.993592 18.559528
12067  1 29.980776  9.993592 21.414840
12068  1 29.980776  9.993592 24.270152
12069  1 29.980776  9.993592 27.125464
12070  1 29.980776  9.993592 29.980776
12071  1 29.980776  9.993592 32.836088
12072  1 29.980776  9.993592 35.691400
12073  1 29.980776  9.993592 38.546712
12074  1 29.980776  9.993592 41.402024
12075  1 29.980776  9.993592 44.257336
12076  1 29.980776  9.993592 47.112648
12077  1 29.980776  9.993592 49.967960
12078  1 29.980776  9.993592 52.823272
12079  1 29.980776  9.993592 55.678584
12080  1 29.980776 12.848904  1.427656
12081  1 29.980776 12.848904  4.282968
12082  1 29.980776 12.848904  7.138280
12083  1 29.980776 12.848904  9.993592
12084  1 29.980776 12.848904 12.848904
12085  1 29.980776 12.848904 15.704216
12086  1 29.980776 12.848904 18.559528
12087  1 29.980776 12.848904 21.414840
12088  1 29.980776 12.848904 24.270152
12089  1 29.980776 12.848904 27.125464
12090  1 29.980776 12.848904 29.980776
12091  1 29.980776 12.848904 32.836088
12092  1 29.980776 12.848904 35.691400
12093  1 29.980776 12.848904 38.546712
12094  1 29.980776 12.848904 41.402024
12095  1 29.980776 12.848904 44.257336
12096  1 29.980776 12.848904 47.112648
12097  1 29.980776 12.848904 49.967960
12098  1 29.980776 12.848904 52.823272
12099  1 29.980776 12.848904 55.678584
12100  1 29.980776 15.704216  1.427656
12101  1 29.980776 15.704216  4.282968
12102  1 29.980776 15.704216  7.138280
12103  1 29.980776 15.704216  9.993592
12104  1 29.980776 15.704216 12.848904
12105  1 29.980776 15.704216 15.704216
12106  1 29.980776 15.704216 18.559528
12107  1 29.980776 15.704216 21.414840
12108  1 29.980776 15.704216 24.270152
12109  1 29.980776 15.704216 27.125464
12110  1 29.980776 15.704216 29.980776
12111  1 29.980776 15.704216 32.836088
12112  1 29.980776 15.704216 35.691400
12113  1 29.980776 15.704216 38.546712
12114  1 29.980776 15.704216 41.402024
12115  1 29.980776 15.704216 44.257336
12116  1 29.980776 15.704216 47.112648
12117  1 29.980776 15.704216 49.967960
12118  1 29.980776 15.704216 52.823272
12119  1 29.980776 15.704216 55.678584
12120  1 29.980776 18.559528  1.427656
12121  1 29.980776 18.559528  4.282968
12122  1 29.980776 18.559528  7.138280
12123  1 29.980776 18.559528  9.993592
12124  1 29.980776 18.559528 12.848904
12125  1 29.980776 18.559528 15.704216
12126  1 29.980776 18.559528 18.559528
12127  1 29.980776 18.559528 21.414840
12128  1 29.980776 18.559528 24.270152
12129  1 29.980776 18.559528 27.125464
12130  1 29.980776 18.559528 29.980776
12131  1 29.980776 18.559528 32.836088
12132  1 29.980776 18.559528 35.691400
12133  1 29.980776 18.559528 38.546712
12134  1 29.980776 18.559528 41.402024
12135  1 29.980776 18.559528 44.257336
12136  1 29.980776 18.559528 47.112648
12137  1 29.980776 18.559528 49.967960
12138  1 29.980776 18.559528 52.823272
12139  1 29.980776 18.559528 55.678584
12140  1 29.980776 21.414840  1.427656
12141  1 29.980776 21.414840  4.282968
12142  1 29.980776 21.414840  7.138280
12143  1 29.980776 21.414840  9.993592
12144  1 29.980776 21.414840 12.848904
12145  1 29.980776 21.414840 15.704216
12146  1 29.980776 21.414840 18.559528
12147  1 29.980776 21.414840 21.414840
12148  1 29.980776 21.414840 24.270152
12149  1 29.980776 21.414840 27.125464
12150  1 29.980776 21.414840 29.980776
12151  1 29.980776 21.414840 32.836088
12152  1 29.980776 21.414840 35.691400
12153  1 29.980776 21.414840 38.546712
12154  1 29.980776 21.414840 41.402024
12155  1 29.980776 21.414840 44.257336
12156  1 29.980776 21.414840 47.112648
12157  1 29.980776 21.414840 49.967960
12158  1 29.980776 21.414840 52.823272
12159  1 29.980776 21.414840 55.678584
12160  1 29.980776 24.270152  1.427656
12161  1 29.980776 24.270152  4.282968
12162  1 29.980776 24.270152  7.138280
12163  1 29.980776 24.270152  9.993592
12164  1 29.980776 24.270152 12.848904
12165  1 29.980776 24.270152 15.704216
12166  1 29.980776 24.270152 18.559528
12167  1 29.980776 24.270152 21.414840
12168  1 29.980776 24.270152 24.270152
12169  1 29.980776 24.270152 27.125464
12170  1 29.980776 24.270152 29.980776
12171  1 29.980776 24.270152 32.836088
12172  1 29.980776 24.270152 35.691400
12173  1 29.980776 24.270152 38.546712
12174  1 29.980776 24.270152 41.402024
12175  1 29.980776 24.270152 44.257336
12176  1 29.980776 24.270152 47.112648
12177  1 29.980776 24.270152 49.967960
12178  1 29.980776 24.270152 52.823272
12179  1 29.980776 24.270152 55.678584
12180  1 29.980776 27.125464  1.427656
12181  1 29.980776 27.125464  4.282968
12182  1 29.980776 27.125464  7.138280
12183  1 29.980776 27.125464  9.993592
12184  1 29.980776 27.125464 12.848904
12185  1 29.980776 27.125464 15.704216
12186  1 29.980776 27.125464 18.559528
12187  1 29.980776 27.125464 21.414840
12188  1 29.980776 27.125464 24.270152
12189  1 29.980776 27.125464 27.125464
12190  1 29.980776 27.125464 29.980776
12191  1 29.980776 27.125464 32.836088
12192  1 29.980776 27.125464 35.691400
12193  1 29.980776 27.125464 38.546712
12194  1 29.980776 27.125464 41.402024
12195  1 29.980776 27.125464 44.257336
12196  1 29.980776 27.125464 47.112648
12197  1 29.980776 27.125464 49.967960
12198  1 29.980776 27.125464 52.823272
12199  1 29.980776 27.125464 55.678584
12200  1 29.980776 29.980776  1.427656
12201  1 29.980776 29.980776  4.282968
12202  1 29.980776 29.980776  7.138280
12203  1 29.980776 29.980776  9.993592
12204  1 29.980776 29.980776 12.848904
12205  1 29.980776 29.980776 15.704216
12206  1 29.980776 29.980776 18.559528
12207  1 29.980776 29.980776 21.414840
12208  1 29.980776 29.980776 24.270152
12209  1 29.980776 29.980776 27.125464
12210  1 29.980776 29.980776 29.980776
12211  1 29.980776 29.980776 32.836088
12212  1 29.980776 29.980776 35.691400
12213  1 29.980776 29.980776 38.546712
12214  1 29.980776 29.980776 41.402024
12215  1 29.980776 29.980776 44.257336
12216  1 29.980776 29.980776 47.112648
12217  1 29.980776 29.980776 49.967960
12218  1 29.980776 29.980776 52.823272
12219  1 29.980776 29.980776 55.678584
12220  1 29.980776 32.836088  1.427656
12221  1 29.980776 32.836088  4.282968
12222  1 29.980776 32.836088  7.138280
12223  1 29.980776 32.836088  9.993592
12224  1 29.980776 32.836088 12.848904
12225  1 29.980776 32.836088 15.704216
12226  1 29.980776 32.836088 18.559528
12227  1 29.980776 32.836088 21.414840
12228  1 29.980776 32.836088 24.270152
12229  1 29.980776 32.836088 27.125464
12230  1 29.980776 32.836088 29.980776
12231  1 29.980776 32.836088 32.836088
12232  1 29.980776 32.836088 35.691400
12233  1 29.980776 32.836088 38.546712
12234  1 29.980776 32.836088 41.402024
12235  1 29.980776 32.836088 44.257336
12236  1 29.980776 32.836088 47.112648
12237  1 29.980776 32.836088 49.967960
12238  1 29.980776 32.836088 52.823272
12239  1 29.980776 32.836088 55.678584
12240  1 29.980776 35.691400  1.427656
12241  1 29.980776 35.691400  4.282968
12242  1 29.980776 35.691400  7.138280
12243  1 29.980776 35.691400  9.993592
12244  1 29.980776 35.691400 12.848904
12245  1 29.980776 35.691400 15.704216
12246  1 29.980776 35.691400 18.559528
12247  1 29.980776 35.691400 21.414840
12248  1 29.980776 35.691400 24.270152
12249  1 29.980776 35.691400 27.125464
12250  1 29.980776 35.691400 29.980776
12251  1 29.980776 35.691400 32.836088
12252  1 29.980776 35.691400 35.691400
12253  1 29.980776 35.691400 38.546712
12254  1 29.980776 35.691400 41.402024
12255  1 29.980776 35.691400 44.257336
12256  1 29.980776 35.691400 47.112648
12257  1 29.980776 35.691400 49.967960
12258  1 29.980776 35.691400 52.823272
12259  1 29.980776 35.691400 55.678584
12260  1 29.980776 38.546712  1.427656
12261  1 29.980776 38.546712  4.282968
12262  1 29.980776 38.546712  7.138280
12263  1 29.980776 38.546712  9.993592
12264  1 29.980776 38.546712 12.848904
12265  1 29.980776 38.546712 15.704216
12266  1 29.980776 38.546712 18.559528
12267  1 29.980776 38.546712 21.414840
12268  1 29.980776 38.546712 24.270152
12269  1 29.980776 38.546712 27.125464
12270  1 29.980776 38.546712 29.980776
12271  1 29.980776 38.546712 32.836088
12272  1 29.980776 38.546712 35.691400
12273  1 29.980776 38.546712 38.546712
12274  1 29.980776 38.546712 41.402024
12275  1 29.980776 38.546712 44.257336
12276  1 29.980776 38.546712 47.112648
12277  1 29.980776 38.546712 49.967960
12278  1 29.980776 38.546712 52.823272
12279  1 29.980776 38.546712 55.678584
12280  1 29.980776 41.402024  1.427656
12281  1 29.980776 41.402024  4.282968
12282  1 29.980776 41.402024  7.138280
12283  1 29.980776 41.402024  9.993592
12284  1 29.980776 41.402024 12.848904
12285  1 29.980776 41.402024 15.704216
12286  1 29.980776 41.402024 18.559528
12287  1 29.980776 41.402024 21.414840
12288  1 29.980776 41.402024 24.270152
12289  1 29.980776 41.402024 27.125464
12290  1 29.980776 41.402024 29.980776
12291  1 29.980776 41.402024 32.836088
12292  1 29.980776 41.402024 35.691400
12293  1 29.980776 41.402024 38.546712
12294  1 29.980776 41.402024 41.402024
12295  1 29.980776 41.402024 44.257336
12296  1 29.980776 41.402024 47.112648
12297  1 29.980776 41.402024 49.967960
12298  1 29.980776 41.402024 52.823272
12299  1 29.980776 41.402024 55.678584
12300  1 29.980776 44.257336  1.427656
12301  1 29.980776 44.257336  4.282968
12302  1 29.980776 44.257336  7.138280
12303  1 29.980776 44.257336  9.993592
12304  1 29.980776 44.257336 12.848904
12305  1 29.980776 44.257336 15.704216
12306  1 29.980776 44.257336 18.559528
12307  1 29.980776 44.257336 21.414840
12308  1 29.980776 44.257336 24.270152
12309  1 29.980776 44.257336 27.125464
12310  1 29.980776 44.257336 29.980776
12311  1 29.980776 44.257336 32.836088
12312  1 29.980776 44.257336 35.691400
12313  1 29.980776 44.257336 38.546712
12314  1 29.980776 44.257336 41.402024
12315  1 29.980776 44.257336 44.257336
12316  1 29.980776 44.257336 47.112648
12317  1 29.980776 44.257336 49.967960
12318  1 29.980776 44.257336 52.823272
12319  1 29.980776 44.257336 55.678584
12320  1 29.980776 47.112648  1.427656
12321  1 29.980776 47.112648  4.282968
12322  1 29.980776 47.112648  7.138280
12323  1 29.980776 47.112648  9.993592
12324  1 29.980776 47.112648 12.848904
12325  1 29.980776 47.112648 15.704216
12326  1 29.980776 47.112648 18.559528
12327  1 29.980776 47.112648 21.414840
12328  1 29.980776 47.112648 24.270152
12329  1 29.980776 47.112648 27.125464
12330  1 29.980776 47.112648 29.980776
12331  1 29.980776 47.112648 32.836088
12332  1 29.980776 47.112648 35.691400
12333  1 29.980776 47.112648 38.546712
12334  1 29.980776 47.112648 41.402024
12335  1 29.980776 47.112648 44.257336
12336  1 29.980776 47.112648 47.112648
12337  1 29.980776 47.112648 49.967960
12338  1 29.980776 47.112648 52.823272
12339  1 29.980776 47.112648 55.678584
12340  1 29.980776 49.967960  1.427656
12341  1 29.980776 49.967960  4.282968
12342  1 29.980776 49.967960  7.138280
12343  1 29.980776 49.967960  9.993592
12344  1 29.980776 49.967960 12.848904
12345  1 29.980776 49.967960 15.704216
12346  1 29.980776 49.967960 18.559528
12347  1 29.980776 49.967960 21.414840
12348  1 29.980776 49.967960 24.270152
12349  1 29.980776 49.967960 27.125464
12350  1 29.980776 49.967960 29.980776
12351  1 29.980776 49.967960 32.836088
12352  1 29.980776 49.967960 35.691400
12353  1 29.980776 49.967960 38.546712
12354  1 29.980776 49.967960 41.402024
12355  1 29.980776 49.967960 44.257336
12356  1 29.980776 49.967960 47.112648
12357  1 29.980776 49.967960 49.967960
12358  1 29.980776 49.967960 52.823272
12359  1 29.980776 49.967960 55.678584
12360  1 29.980776 52.823272  1.427656
12361  1 29.980776 52.823272  4.282968
12362  1 29.980776 52.823272  7.138280
12363  1 29.980776 52.823272  9.993592
12364  1 29.980776 52.823272 12.848904
12365  1 29.980776 52.823272 15.704216
12366  1 29.980776 52.823272 18.559528
12367  1 29.980776 52.823272 21.414840
12368  1 29.980776 52.823272 24.270152
12369  1 29.980776 52.823272 27.125464
12370  1 29.980776 52.823272 29.980776
12371  1 29.980776 52.823272 32.836088
12372  1 29.980776 52.823272 35.691400
12373  1 29.980776 52.823272 38.546712
12374  1 29.980776 52.823272 41.402024
12375  1 29.980776 52.823272 44.257336
12376  1 29.980776 52.823272 47.112648
12377  1 29.980776 52.823272 49.967960
12378  1 29.980776 52.823272 52.823272
12379  1 29.980776 52.823272 55.678584
12380  1 29.980776 55.678584  1.427656
12381  1 29.980776 55.678584  4.282968
12382  1 29.980776 55.678584  7.138280
12383  1 29.980776 55.678584  9.993592
12384  1 29.980776 55.678584 12.848904
12385  1 29.980776 55.678584 15.704216
12386  1 29.980776 55.678584 18.559528
12387  1 29.980776 55.678584 21.414840
12388  1 29.980776 55.678584 24.270152
12389  1 29.980776 55.678584 27.125464
12390  1 29.980776 55.678584 29.980776
12391  1 29.980776 55.678584 32.836088
12392  1 29.980776 55.678584 35.691400
12393  1 29.980776 55.678584 38.546712
12394  1 29.980776 55.678584 41.402024
12395  1 29.980776 55.678584 44.257336
12396  1 29.980776 55.678584 47.112648
12397  1 29.980776 55.678584 49.967960
12398  1 29.980776 55.678584 52.823272
12399  1 29.980776 55.678584 55.678584
12400  1 32.836088  1.427656  1.427656
12401  1 32.836088  1.427656  4.282968
12402  1 32.836088  1.427656  7.138280
12403  1 32.836088  1.427656  9.993592
12404  1 32.836088  1.427656 12.848904
12405  1 32.836088  1.427656 15.704216
12406  1 32.836088  1.427656 18.559528
12407  1 32.836088  1.427656 21.414840
12408  1 32.836088  1.427656 24.270152
12409  1 32.836088  1.427656 27.125464
12410  1 32.836088  1.427656 29.980776
12411  1 32.836088  1.427656 32.836088
12412  1 32.836088  1.427656 35.691400
12413  1 32.836088  1.427656 38.546712
12414  1 32.836088  1.427656 41.402024
12415  1 32.836088  1.427656 44.257336
12416  1 32.836088  1.427656 47.112648
12417  1 32.836088  1.427656 49.967960
12418  1 32.836088  1.427656 52.823272
12419  1 32.836088  1.427656 55.678584
12420  1 32.836088  4.282968  1.427656
12421  1 32.836088  4.282968  4.282968
12422  1 32.836088  4.282968  7.138280
12423  1 32.836088  4.282968  9.993592
12424  1 32.836088  4.282968 12.848904
12425  1 32.836088  4.282968 15.704216
12426  1 32.836088  4.282968 18.559528
12427  1 32.836088  4.282968 21.414840
12428  1 32.836088  4.282968 24.270152
12429  1 32.836088  4.282968 27.125464
12430  1 32.836088  4.282968 29.980776
12431  1 32.836088  4.282968 32.836088
12432  1 32.836088  4.282968 35.691400
12433  1 32.836088  4.282968 38.546712
12434  1 32.836088  4.282968 41.402024
12435  1 32.836088  4.282968 44.257336
12436  1 32.836088  4.282968 47.112648
12437  1 32.836088  4.282968 49.967960
12438  1 32.836088  4.282968 52.823272
12439  1 32.836088  4.282968 55.678584
12440  1 32.836088  7.138280  1.427656
12441  1 32.836088  7.138280  4.282968
12442  1 32.836088  7.138280  7.138280
12443  1 32.836088  7.138280  9.993592
12444  1 32.836088  7.138280 12.848904
12445  1 32.836088  7.138280 15.704216
12446  1 32.836088  7.138280 18.559528
12447  1 32.836088  7.138280 21.414840
12448  1 32.836088  7.138280 24.270152
12449  1 32.836088  7.138280 27.125464
12450  1 32.836088  7.138280 29.980776
12451  1 32.836088  7.138280 32.836088
12452  1 32.836088  7.138280 35.691400
12453  1 32.836088  7.138280 38.546712
12454  1 32.836088  7.138280 41.402024
12455  1 32.836088  7.138280 44.257336
12456  1 32.836088  7.138280 47.112648
12457  1 32.836088  7.138280 49.967960
12458  1 32.836088  7.138280 52.823272
12459  1 32.836088  7.138280 55.678584
12460  1 32.836088  9.993592  1.427656
12461  1 32.836088  9.993592  4.282968
12462  1 32.836088  9.993592  7.138280
12463  1 32.836088  9.993592  9.993592
12464  1 32.836088  9.993592 12.848904
12465  1 32.836088  9.993592 15.704216
12466  1 32.836088  9.993592 18.559528
12467  1 32.836088  9.993592 21.414840
12468  1 32.836088  9.993592 24.270152
12469  1 32.836088  9.993592 27.125464
12470  1 32.836088  9.993592 29.980776
12471  1 32.836088  9.993592 32.836088
12472  1 32.836088  9.993592 35.691400
12473  1 32.836088  9.993592 38.546712
12474  1 32.836088  9.993592 41.402024
12475  1 32.836088  9.993592 44.257336
12476  1 32.836088  9.993592 47.112648
12477  1 32.836088  9.993592 49.967960
12478  1 32.836088  9.993592 52.823272
12479  1 32.836088  9.993592 55.678584
12480  1 32.836088 12.848904  1.427656
12481  1 32.836088 12.848904  4.282968
12482  1 32.836088 12.848904  7.138280
12483  1 32.836088 12.848904  9.993592
12484  1 32.836088 12.848904 12.848904
12485  1 32.836088 12.848904 15.704216
12486  1 32.836088 12.848904 18.559528
12487  1 32.836088 12.848904 21.414840
12488  1 32.836088 12.848904 24.270152
12489  1 32.836088 12.848904 27.125464
12490  1 32.836088 12.848904 29.980776
12491  1 32.836088 12.848904 32.836088
12492  1 32.836088 12.848904 35.691400
12493  1 32.836088 12.848904 38.546712
12494  1 32.836088 12.848904 41.402024
12495  1 32.836088 12.848904 44.257336
12496  1 32.836088 12.848904 47.112648
12497  1 32.836088 12.848904 49.967960
12498  1 32.836088 12.848904 52.823272
12499  1 32.836088 12.848904 55.678584
12500  1 32.836088 15.704216  1.427656
12501  1 32.836088 15.704216  4.282968
12502  1 32.836088 15.704216  7.138280
12503  1 32.836088 15.704216  9.993592
12504  1 32.836088 15.704216 12.848904
12505  1 32.836088 15.704216 15.704216
12506  1 32.836088 15.704216 18.559528
12507  1 32.836088 15.704216 21.414840
12508  1 32.836088 15.704216 24.270152
12509  1 32.836088 15.704216 27.125464
12510  1 32.836088 15.704216 29.980776
12511  1 32.836088 15.704216 32.836088
12512  1 32.836088 15.704216 35.691400
12513  1 32.836088 15.704216 38.546712
12514  1 32.836088 15.704216 41.402024
12515  1 32.836088 15.704216 44.257336
12516  1 32.836088 15.704216 47.112648
12517  1 32.836088 15.704216 49.967960
12518  1 32.836088 15.704216 52.823272
12519  1 32.836088 15.704216 55.678584
12520  1 32.836088 18.559528  1.427656
12521  1 32.836088 18.559528  4.282968
12522  1 32.836088 18.559528  7.138280
12523  1 32.836088 18.559528  9.993592
12524  1 32.836088 18.559528 12.848904
12525  1 32.836088 18.559528 15.704216
12526  1 32.836088 18.559528 18.559528
12527  1 32.836088 18.559528 21.414840
12528  1 32.836088 18.559528 24.270152
12529  1 32.836088 18.559528 27.125464
12530  1 32.836088 18.559528 29.980776
12531  1 32.836088 18.559528 32.836088
12532  1 32.836088 18.559528 35.691400
12533  1 32.836088 18.559528 38.546712
12534  1 32.836088 18.559528 41.402024
12535  1 32.836088 18.559528 44.257336
12536  1 32.836088 18.559528 47.112648
12537  1 32.836088 18.559528 49.967960
12538  1 32.836088 18.559528 52.823272
12539  1 32.836088 18.559528 55.678584
12540  1 32.836088 21.414840  1.427656
12541  1 32.836088 21.414840  4.282968
12542  1 32.836088 21.414840  7.138280
12543  1 32.836088 21.414840  9.993592
12544  1 32.836088 21.414840 12.848904
12545  1 32.836088 21.414840 15.704216
12546  1 32.836088 21.414840 18.559528
12547  1 32.836088 21.414840 21.414840
12548  1 32.836088 21.414840 24.270152
12549  1 32.836088 21.414840 27.125464
12550  1 32.836088 21.414840 29.980776
12551  1 32.836088 21.414840 32.836088
12552  1 32.836088 21.414840 35.691400
12553  1 32.836088 21.414840 38.546712
12554  1 32.836088 21.414840 41.402024
12555  1 32.836088 21.414840 44.257336
12556  1 32.836088 21.414840 47.112648
12557  1 32.836088 21.414840 49.967960
12558  1 32.836088 21.414840 52.823272
12559  1 32.836088 21.414840 55.678584
12560  1 32.836088 24.270152  1.427656
12561  1 32.836088 24.270152  4.282968
12562  1 32.836088 24.270152  7.138280
12563  1 32.836088 24.270152  9.993592
12564  1 32.836088 24.270152 12.848904
12565  1 32.836088 24.270152 15.704216
12566  1 32.836088 24.270152 18.559528
12567  1 32.836088 24.270152 21.414840
12568  1 32.836088 24.270152 24.270152
12569  1 32.836088 24.270152 27.125464
12570  1 32.836088 24.270152 29.980776
12571  1 32.836088 24.270152 32.836088
12572  1 32.836088 24.270152 35.691400
12573  1 32.836088 24.270152 38.546712
12574  1 32.836088 24.270152 41.402024
12575  1 32.836088 24.270152 44.257336
12576  1 32.836088 24.270152 47.112648
12577  1 32.836088 24.270152 49.967960
12578  1 32.836088 24.270152 52.823272
12579  1 32.836088 24.270152 55.678584
12580  1 32.836088 27.125464  1.427656
12581  1 32.836088 27.125464  4.282968
12582  1 32.836088 27.125464  7.138280
12583  1 32.836088 27.125464  9.993592
12584  1 32.836088 27.125464 12.848904
12585  1 32.836088 27.125464 15.704216
12586  1 32.836088 27.125464 18.559528
12587  1 32.836088 27.125464 21.414840
12588  1 32.836088 27.125464 24.270152
12589  1 32.836088 27.125464 27.125464
12590  1 32.836088 27.125464 29.980776
12591  1 32.836088 27.125464 32.836088
12592  1 32.836088 27.125464 35.691400
12593  1 32.836088 27.125464 38.546712
12594  1 32.836088 27.125464 41.402024
12595  1 32.836088 27.125464 44.257336
12596  1 32.836088 27.125464 47.112648
12597  1 32.836088 27.125464 49.967960
12598  1 32.836088 27.125464 52.823272
12599  1 32.836088 27.125464 55.678584
12600  1 32.836088 29.980776  1.427656
12601  1 32.836088 29.980776  4.282968
12602  1 32.836088 29.980776  7.138280
12603  1 32.836088 29.980776  9.993592
12604  1 32.836088 29.980776 12.848904
12605  1 32.836088 29.980776 15.704216
12606  1 32.836088 29.980776 18.559528
12607  1 32.836088 29.980776 21.414840
12608  1 32.836088 29.980776 24.270152
12609  1 32.836088 29.980776 27.125464
12610  1 32.836088 29.980776 29.980776
12611  1 32.836088 29.980776 32.836088
12612  1 32.836088 29.980776 35.691400
12613  1 32.836088 29.980776 38.546712
12614  1 32.836088 29.980776 41.402024
12615  1 32.836088 29.980776 44.257336
12616  1 32.836088 29.980776 47.112648
12617  1 32.836088 29.980776 49.967960
12618  1 32.836088 29.980776 52.823272
12619  1 32.836088 29.980776 55.678584
12620  1 32.836088 32.836088  1.427656
12621  1 32.836088 32.836088  4.282968
12622  1 32.836088 32.836088  7.138280
12623  1 32.836088 32.836088  9.993592
12624  1 32.836088 32.836088 12.848904
12625  1 32.836088 32.836088 15.704216
12626  1 32.836088 32.836088 18.559528
12627  1 32.836088 32.836088 21.414840
12628  1 32.836088 32.836088 24.270152
12629  1 32.836088 32.836088 27.125464
12630  1 32.836088 32.836088 29.980776
12631  1 32.836088 32.836088 32.836088
12632  1 32.836088 32.836088 35.691400
12633  1 32.836088 32.836088 38.546712
12634  1 32.836088 32.836088 41.402024
12635  1 32.836088 32.836088 44.257336
12636  1 32.836088 32.836088 47.112648
12637  1 32.836088 32.836088 49.967960
12638  1 32.836088 32.836088 52.823272
12639  1 32.836088 32.836088 55.678584
12640  1 32.836088 35.691400  1.427656
12641  1 32.836088 35.691400  4.282968
12642  1 32.836088 35.691400  7.138280
12643  1 32.836088 35.691400  9.993592
12644  1 32.836088 35.691400 12.848904
12645  1 32.836088 35.691400 15.704216
12646  1 32.836088 35.691400 18.559528
12647  1 32.836088 35.691400 21.414840
12648  1 32.836088 35.691400 24.270152
12649  1 32.836088 35.691400 27.125464
12650  1 32.836088 35.691400 29.980776
12651  1 32.836088 35.691400 32.836088
12652  1 32.836088 35.691400 35.691400
12653  1 32.836088 35.691400 38.546712
12654  1 32.836088 35.691400 41.402024
12655  1 32.836088 35.691400 44.257336
12656  1 32.836088 35.691400 47.112648
12657  1 32.836088 35.691400 49.967960
12658  1 32.836088 35.691400 52.823272
12659  1 32.836088 35.691400 55.678584
12660  1 32.836088 38.546712  1.427656
12661  1 32.836088 38.546712  4.282968
12662  1 32.836088 38.546712  7.138280
12663  1 32.836088 38.546712  9.993592
12664  1 32.836088 38.546712 12.848904
12665  1 32.836088 38.546712 15.704216
12666  1 32.836088 38.546712 18.559528
12667  1 32.836088 38.546712 21.414840
12668  1 32.836088 38.546712 24.270152
12669  1 32.836088 38.546712 27.125464
12670  1 32.836088 38.546712 29.980776
12671  1 32.836088 38.546712 32.836088
12672  1 32.836088 38.546712 35.691400
12673  1 32.836088 38.546712 38.546712
12674  1 32.836088 38.546712 41.402024
12675  1 32.836088 38.546712 44.257336
12676  1 32.836088 38.546712 47.112648
12677  1 32.836088 38.546712 49.967960
12678  1 32.836088 38.546712 52.823272
12679  1 32.836088 38.546712 55.678584
12680  1 32.836088 41.402024  1.427656
12681  1 32.836088 41.402024  4.282968
12682  1 32.836088 41.402024  7.138280
12683  1 32.836088 41.402024  9.993592
12684  1 32.836088 41.402024 12.848904
12685  1 32.836088 41.402024 15.704216
12686  1 32.836088 41.402024 18.559528
12687  1 32.836088 41.402024 21.414840
12688  1 32.836088 41.402024 24.270152
12689  1 32.836088 41.402024 27.125464
12690  1 32.836088 41.402024 29.980776
12691  1 32.836088 41.402024 32.836088
12692  1 32.836088 41.402024 35.691400
12693  1 32.836088 41.402024 38.546712
12694  1 32.836088 41.402024 41.402024
12695  1 32.836088 41.402024 44.257336
12696  1 32.836088 41.402024 47.112648
12697  1 32.836088 41.402024 49.967960
12698  1 32.836088 41.402024 52.823272
12699  1 32.836088 41.402024 55.678584
12700  1 32.836088 44.257336  1.427656
12701  1 32.836088 44.257336  4.282968
12702  1 32.836088 44.257336  7.138280
12703  1 32.836088 44.257336  9.993592
12704  1 32.836088 44.257336 12.848904
12705  1 32.836088 44.257336 15.704216
12706  1 32.836088 44.257336 18.559528
12707  1 32.836088 44.257336 21.414840
12708  1 32.836088 44.257336 24.270152
12709  1 32.836088 44.257336 27.125464
12710  1 32.836088 44.257336 29.980776
12711  1 32.836088 44.257336 32.836088
12712  1 32.836088 44.257336 35.691400
12713  1 32.836088 44.257336 38.546712
12714  1 32.836088 44.257336 41.402024
12715  1 32.836088 44.257336 44.257336
12716  1 32.836088 44.257336 47.112648
12717  1 32.836088 44.257336 49.967960
12718  1 32.836088 44.257336 52.823272
12719  1 32.836088 44.257336 55.678584
12720  1 32.836088 47.112648  1.427656
12721  1 32.836088 47.112648  4.282968
12722  1 32.836088 47.112648  7.138280
12723  1 32.836088 47.112648  9.993592
12724  1 32.836088 47.112648 12.848904
12725  1 32.836088 47.112648 15.704216
12726  1 32.836088 47.112648 18.559528
12727  1 32.836088 47.112648 21.414840
12728  1 32.836088 47.112648 24.270152
12729  1 32.836088 47.112648 27.125464
12730  1 32.836088 47.112648 29.980776
12731  1 32.836088 47.112648 32.836088
12732  1 32.836088 47.112648 35.691400
12733  1 32.836088 47.112648 38.546712
12734  1 32.836088 47.112648 41.402024
12735  1 32.836088 47.112648 44.257336
12736  1 32.836088 47.112648 47.112648
12737  1 32.836088 47.112648 49.967960
12738  1 32.836088 47.112648 52.823272
12739  1 32.836088 47.112648 55.678584
12740  1 32.836088 49.967960  1.427656
12741  1 32.836088 49.967960  4.282968
12742  1 32.836088 49.967960  7.138280
12743  1 32.836088 49.967960  9.993592
12744  1 32.836088 49.967960 12.848904
12745  1 32.836088 49.967960 15.704216
12746  1 32.836088 49.967960 18.559528
12747  1 32.836088 49.967960 21.414840
12748  1 32.836088 49.967960 24.270152
12749  1 32.836088 49.967960 27.125464
12750  1 32.836088 49.967960 29.980776
12751  1 32.836088 49.967960 32.836088
12752  1 32.836088 49.967960 35.691400
12753  1 32.836088 49.967960 38.546712
12754  1 32.836088 49.967960 41.402024
12755  1 32.836088 49.967960 44.257336
12756  1 32.836088 49.967960 47.112648
12757  1 32.836088 49.967960 49.967960
12758  1 32.836088 49.967960 52.823272
12759  1 32.836088 49.967960 55.678584
12760  1 32.836088 52.823272  1.427656
12761  1 32.836088 52.823272  4.282968
12762  1 32.836088 52.823272  7.138280
12763  1 32.836088 52.823272  9.993592
12764  1 32.836088 52.823272 12.848904
12765  1 32.836088 52.823272 15.704216
12766  1 32.836088 52.823272 18.559528
12767  1 32.836088 52.823272 21.414840
12768  1 32.836088 52.823272 24.270152
12769  1 32.836088 52.823272 27.125464
12770  1 32.836088 52.823272 29.980776
12771  1 32.836088 52.823272 32.836088
12772  1 32.836088 52.823272 35.691400
12773  1 32.836088 52.823272 38.546712
12774  1 32.836088 52.823272 41.402024
12775  1 32.836088 52.823272 44.257336
12776  1 32.836088 52.823272 47.112648
12777  1 32.836088 52.823272 49.967960
12778  1 32.836088 52.823272 52.823272
12779  1 32.836088 52.823272 55.678584
12780  1 32.836088 55.678584  1.427656
12781  1 32.836088 55.678584  4.282968
12782  1 32.836088 55.678584  7.138280
12783  1 32.836088 55.678584  9.993592
12784  1 32.836088 55.678584 12.848904
12785  1 32.836088 55.678584 15.704216
12786  1 32.836088 55.678584 18.559528
12787  1 32.836088 55.678584 21.414840
12788  1 32.836088 55.678584 24.270152
12789  1 32.836088 55.678584 27.125464
12790  1 32.836088 55.678584 29.980776
12791  1 32.836088 55.678584 32.836088
12792  1 32.836088 55.678584 35.691400
12793  1 32.836088 55.678584 38.546712
12794  1 32.836088 55.678584 41.402024
12795  1 32.836088 55.678584 44.257336
12796  1 32.836088 55.678584 47.112648
12797  1 32.836088 55.678584 49.967960
12798  1 32.836088 55.678584 52.823272
12799  1 32.836088 55.678584 55.678584
12800  1 35.691400  1.427656  1.427656
12801  1 35.691400  1.427656  4.282968
12802  1 35.691400  1.427656  7.138280
12803  1 35.691400  1.427656  9.993592
12804  1 35.691400  1.427656 12.848904
12805  1 35.691400  1.427656 15.704216
12806  1 35.691400  1.427656 18.559528
12807  1 35.691400  1.427656 21.414840
12808  1 35.691400  1.427656 24.270152
12809  1 35.691400  1.427656 27.125464
12810  1 35.691400  1.427656 29.980776
12811  1 35.691400  1.427656 32.836088
12812  1 35.691400  1.427656 35.691400
12813  1 35.691400  1.427656 38.546712
12814  1 35.691400  1.427656 41.402024
12815  1 35.691400  1.427656 44.257336
12816  1 35.691400  1.427656 47.112648
12817  1 35.691400  1.427656 49.967960
12818  1 35.691400  1.427656 52.823272
12819  1 35.691400  1.427656 55.678584
12820  1 35.691400  4.282968  1.427656
12821  1 35.691400  4.282968  4.282968
12822  1 35.691400  4.282968  7.138280
12823  1 35.691400  4.282968  9.993592
12824  1 35.691400  4.282968 12.848904
12825  1 35.691400  4.282968 15.704216
12826  1 35.691400  4.282968 18.559528
12827  1 35.691400  4.282968 21.414840
12828  1 35.691400  4.282968 24.270152
12829  1 35.691400  4.282968 27.125464
12830  1 35.691400  4.282968 29.980776
12831  1 35.691400  4.282968 32.836088
12832  1 35.691400  4.282968 35.691400
12833  1 35.691400  4.282968 38.546712
12834  1 35.691400  4.282968 41.402024
12835  1 35.691400  4.282968 44.257336
12836  1 35.691400  4.282968 47.112648
12837  1 35.691400  4.282968 49.967960
12838  1 35.691400  4.282968 52.823272
12839  1 35.691400  4.282968 55.678584
12840  1 35.691400  7.138280  1.427656
12841  1 35.691400  7.138280  4.282968
12842  1 35.691400  7.138280  7.138280
12843  1 35.691400  7.138280  9.993592
12844  1 35.691400  7.138280 12.848904
12845  1 35.691400  7.138280 15.704216
12846  1 35.691400  7.138280 18.559528
12847  1 35.691400  7.138280 21.414840
12848  1 35.691400  7.138280 24.270152
12849  1 35.691400  7.138280 27.125464
12850  1 35.691400  7.138280 29.980776
12851  1 35.691400  7.138280 32.836088
12852  1 35.691400  7.138280 35.691400
12853  1 35.691400  7.138280 38.546712
12854  1 35.691400  7.138280 41.402024
12855  1 35.691400  7.138280 44.257336
12856  1 35.691400  7.138280 47.112648
12857  1 35.691400  7.138280 49.967960
12858  1 35.691400  7.138280 52.823272
12859  1 35.691400  7.138280 55.678584
12860  1 35.691400  9.993592  1.427656
12861  1 35.691400  9.993592  4.282968
12862  1 35.691400  9.993592  7.138280
12863  1 35.691400  9.993592  9.993592
12864  1 35.691400  9.993592 12.848904
12865  1 35.691400  9.993592 15.704216
12866  1 35.691400  9.993592 18.559528
12867  1 35.691400  9.993592 21.414840
12868  1 35.691400  9.993592 24.270152
12869  1 35.691400  9.993592 27.125464
12870  1 35.691400  9.993592 29.980776
12871  1 35.691400  9.993592 32.836088
12872  1 35.691400  9.993592 35.691400
12873  1 35.691400  9.993592 38.546712
12874  1 35.691400  9.993592 41.402024
12875  1 35.691400  9.993592 44.257336
12876  1 35.691400  9.993592 47.112648
12877  1 35.691400  9.993592 49.967960
12878  1 35.691400  9.993592 52.823272
12879  1 35.691400  9.993592 55.678584
12880  1 35.691400 12.848904  1.427656
12881  1 35.691400 12.848904  4.282968
12882  1 35.691400 12.848904  7.138280
12883  1 35.691400 12.848904  9.993592
12884  1 35.691400 12.848904 12.848904
12885  1 35.691400 12.848904 15.704216
12886  1 35.691400 12.848904 18.559528
12887  1 35.691400 12.848904 21.414840
12888  1 35.691400 12.848904 24.270152
12889  1 35.691400 12.848904 27.125464
12890  1 35.691400 12.848904 29.980776
12891  1 35.691400 12.848904 32.836088
12892  1 35.691400 12.848904 35.691400
12893  1 35.691400 12.848904 38.546712
12894  1 35.691400 12.848904 41.402024
12895  1 35.691400 12.848904 44.257336
12896  1 35.691400 12.848904 47.112648
12897  1 35.691400 12.848904 49.967960
12898  1 35.691400 12.848904 52.823272
12899  1 35.691400 12.848904 55.678584
12900  1 35.691400 15.704216  1.427656
12901  1 35.691400 15.704216  4.282968
12902  1 35.691400 15.704216  7.138280
12903  1 35.691400 15.704216  9.993592
12904  1 35.691400 15.704216 12.848904
12905  1 35.691400 15.704216 15.704216
12906  1 35.691400 15.704216 18.559528
12907  1 35.691400 15.704216 21.414840
12908  1 35.691400 15.704216 24.270152
12909  1 35.691400 15.704216 27.125464
12910  1 35.691400 15.704216 29.980776
12911  1 35.691400 15.704216 32.836088
12912  1 35.691400 15.704216 35.691400
12913  1 35.691400 15.704216 38.546712
12914  1 35.691400 15.704216 41.402024
12915  1 35.691400 15.704216 44.257336
12916  1 35.691400 15.704216 47.112648
12917  1 35.691400 15.704216 49.967960
12918  1 35.691400 15.704216 52.823272
12919  1 35.691400 15.704216 55.678584
12920  1 35.691400 18.559528  1.427656
12921  1 35.691400 18.559528  4.282968
12922  1 35.691400 18.559528  7.138280
12923  1 35.691400 18.559528  9.993592
12924  1 35.691400 18.559528 12.848904
12925  1 35.691400 18.559528 15.704216
12926  1 35.691400 18.559528 18.559528
12927  1 35.691400 18.559528 21.414840
12928  1 35.691400 18.559528 24.270152
12929  1 35.691400 18.559528 27.125464
12930  1 35.691400 18.559528 29.980776
12931  1 35.691400 18.559528 32.836088
12932  1 35.691400 18.559528 35.691400
12933  1 35.691400 18.559528 38.546712
12934  1 35.691400 18.559528 41.402024
12935  1 35.691400 18.559528 44.257336
12936  1 35.691400 18.559528 47.112648
12937  1 35.691400 18.559528 49.967960
12938  1 35.691400 18.559528 52.823272
12939  1 35.691400 18.559528 55.678584
12940  1 35.691400 21.414840  1.427656
12941  1 35.691400 21.414840  4.282968
12942  1 35.691400 21.414840  7.138280
12943  1 35.691400 21.414840  9.993592
12944  1 35.691400 21.414840 12.848904
12945  1 35.691400 21.414840 15.704216
12946  1 35.691400 21.414840 18.559528
12947  1 35.691400 21.414840 21.414840
12948  1 35.691400 21.414840 24.270152
12949  1 35.691400 21.414840 27.125464
12950  1 35.691400 21.414840 29.980776
12951  1 35.691400 21.414840 32.836088
12952  1 35.691400 21.414840 35.691400
12953  1 35.691400 21.414840 38.546712
12954  1 35.691400 21.414840 41.402024
12955  1 35.691400 21.414840 44.257336
12956  1 35.691400 21.414840 47.112648
12957  1 35.691400 21.414840 49.967960
12958  1 35.691400 21.414840 52.823272
12959  1 35.691400 21.414840 55.678584
12960  1 35.691400 24.270152  1.427656
12961  1 35.691400 24.270152  4.282968
12962  1 35.691400 24.270152  7.138280
12963  1 35.691400 24.270152  9.993592
12964  1 35.691400 24.270152 12.848904
12965  1 35.691400 24.270152 15.704216
12966  1 35.691400 24.270152 18.559528
12967  1 35.691400 24.270152 21.414840
12968  1 35.691400 24.270152 24.270152
12969  1 35.691400 24.270152 27.125464
12970  1 35.691400 24.270152 29.980776
12971  1 35.691400 24.270152 32.836088
12972  1 35.691400 24.270152 35.691400
12973  1 35.691400 24.270152 38.546712
12974  1 35.691400 24.270152 41.402024
12975  1 35.691400 24.270152 44.257336
12976  1 35.691400 24.270152 47.112648
12977  1 35.691400 24.270152 49.967960
12978  1 35.691400 24.270152 52.823272
12979  1 35.691400 24.270152 55.678584
12980  1 35.691400 27.125464  1.427656
12981  1 35.691400 27.125464  4.282968
12982  1 35.691400 27.125464  7.138280
12983  1 35.691400 27.125464  9.993592
12984  1 35.691400 27.125464 12.848904
12985  1 35.691400 27.125464 15.704216
12986  1 35.691400 27.125464 18.559528
12987  1 35.691400 27.125464 21.414840
12988  1 35.691400 27.125464 24.270152
12989  1 35.691400 27.125464 27.125464
12990  1 35.691400 27.125464 29.980776
12991  1 35.691400 27.125464 32.836088
12992  1 35.691400 27.125464 35.691400
12993  1 35.691400 27.125464 38.546712
12994  1 35.691400 27.125464 41.402024
12995  1 35.691400 27.125464 44.257336
12996  1 35.691400 27.125464 47.112648
12997  1 35.691400 27.125464 49.967960
12998  1 35.691400 27.125464 52.823272
12999  1 35.691400 27.125464 55.678584
13000  1 35.691400 29.980776  1.427656
13001  1 35.691400 29.980776  4.282968
13002  1 35.691400 29.980776  7.138280
13003  1 35.691400 29.980776  9.993592
13004  1 35.691400 29.980776 12.848904
13005  1 35.691400 29.980776 15.704216
13006  1 35.691400 29.980776 18.559528
13007  1 35.691400 29.980776 21.414840
13008  1 35.691400 29.980776 24.270152
13009  1 35.691400 29.980776 27.125464
13010  1 35.691400 29.980776 29.980776
13011  1 35.691400 29.980776 32.836088
13012  1 35.691400 29.980776 35.691400
13013  1 35.691400 29.980776 38.546712
13014  1 35.691400 29.980776 41.402024
13015  1 35.691400 29.980776 44.257336
13016  1 35.691400 29.980776 47.112648
13017  1 35.691400 29.980776 49.967960
13018  1 35.691400 29.980776 52.823272
13019  1 35.691400 29.980776 55.678584
13020  1 35.691400 32.836088  1.427656
13021  1 35.691400 32.836088  4.282968
13022  1 35.691400 32.836088  7.138280
13023  1 35.691400 32.836088  9.993592
13024  1 35.691400 32.836088 12.848904
13025  1 35.691400 32.836088 15.704216
13026  1 35.691400 32.836088 18.559528
13027  1 35.691400 32.836088 21.414840
13028  1 35.691400 32.836088 24.270152
13029  1 35.691400 32.836088 27.125464
13030  1 35.691400 32.836088 29.980776
13031  1 35.691400 32.836088 32.836088
13032  1 35.691400 32.836088 35.691400
13033  1 35.691400 32.836088 38.546712
13034  1 35.691400 32.836088 41.402024
13035  1 35.691400 32.836088 44.257336
13036  1 35.691400 32.836088 47.112648
13037  1 35.691400 32.836088 49.967960
13038  1 35.691400 32.836088 52.823272
13039  1 35.691400 32.836088 55.678584
13040  1 35.691400 35.691400  1.427656
13041  1 35.691400 35.691400  4.282968
13042  1 35.691400 35.691400  7.138280
13043  1 35.691400 35.691400  9.993592
13044  1 35.691400 35.691400 12.848904
13045  1 35.691400 35.691400 15.704216
13046  1 35.691400 35.691400 18.559528
13047  1 35.691400 35.691400 21.414840
13048  1 35.691400 35.691400 24.270152
13049  1 35.691400 35.691400 27.125464
13050  1 35.691400 35.691400 29.980776
13051  1 35.691400 35.691400 32.836088
13052  1 35.691400 35.691400 35.691400
13053  1 35.691400 35.691400 38.546712
13054  1 35.691400 35.691400 41.402024
13055  1 35.691400 35.691400 44.257336
13056  1 35.691400 35.691400 47.112648
13057  1 35.691400 35.691400 49.967960
13058  1 35.691400 35.691400 52.823272
13059  1 35.691400 35.691400 55.678584
13060  1 35.691400 38.546712  1.427656
13061  1 35.691400 38.546712  4.282968
13062  1 35.691400 38.546712  7.138280
13063  1 35.691400 38.546712  9.993592
13064  1 35.691400 38.546712 12.848904
13065  1 35.691400 38.546712 15.704216
13066  1 35.691400 38.546712 18.559528
13067  1 35.691400 38.546712 21.414840
13068  1 35.691400 38.546712 24.270152
13069  1 35.691400 38.546712 27.125464
13070  1 35.691400 38.546712 29.980776
13071  1 35.691400 38.546712 32.836088
13072  1 35.691400 38.546712 35.691400
13073  1 35.691400 38.546712 38.546712
13074  1 35.691400 38.546712 41.402024
13075  1 35.691400 38.546712 44.257336
13076  1 35.691400 38.546712 47.112648
13077  1 35.691400 38.546712 49.967960
13078  1 35.691400 38.546712 52.823272
13079  1 35.691400 38.546712 55.678584
13080  1 35.691400 41.402024  1.427656
13081  1 35.691400 41.402024  4.282968
13082  1 35.691400 41.402024  7.138280
13083  1 35.691400 41.402024  9.993592
13084  1 35.691400 41.402024 12.848904
13085  1 35.691400 41.402024 15.704216
13086  1 35.691400 41.402024 18.559528
13087  1 35.691400 41.402024 21.414840
13088  1 35.691400 41.402024 24.270152
13089  1 35.691400 41.402024 27.125464
13090  1 35.691400 41.402024 29.980776
13091  1 35.691400 41.402024 32.836088
13092  1 35.691400 41.402024 35.691400
13093  1 35.691400 41.402024 38.546712
13094  1 35.691400 41.402024 41.402024
13095  1 35.691400 41.402024 44.257336
13096  1 35.691400 41.402024 47.112648
13097  1 35.691400 41.402024 49.967960
13098  1 35.691400 41.402024 52.823272
13099  1 35.691400 41.402024 55.678584
13100  1 35.691400 44.257336  1.427656
13101  1 35.691400 44.257336  4.282968
13102  1 35.691400 44.257336  7.138280
13103  1 35.691400 44.257336  9.993592
13104  1 35.691400 44.257336 12.848904
13105  1 35.691400 44.257336 15.704216
13106  1 35.691400 44.257336 18.559528
13107  1 35.691400 44.257336 21.414840
13108  1 35.691400 44.257336 24.270152
13109  1 35.691400 44.257336 27.125464
13110  1 35.691400 44.257336 29.980776
13111  1 35.691400 44.257336 32.836088
13112  1 35.691400 44.257336 35.691400
13113  1 35.691400 44.257336 38.546712
13114  1 35.691400 44.257336 41.402024
13115  1 35.691400 44.257336 44.257336
13116  1 35.691400 44.257336 47.112648
13117  1 35.691400 44.257336 49.967960
13118  1 35.691400 44.257336 52.823272
13119  1 35.691400 44.257336 55.678584
13120  1 35.691400 47.112648  1.427656
13121  1 35.691400 47.112648  4.282968
13122  1 35.691400 47.112648  7.138280
13123  1 35.691400 47.112648  9.993592
13124  1 35.691400 47.112648 12.848904
13125  1 35.691400 47.112648 15.704216
13126  1 35.691400 47.112648 18.559528
13127  1 35.691400 47.112648 21.414840
13128  1 35.691400 47.112648 24.270152
13129  1 35.691400 47.112648 27.125464
13130  1 35.691400 47.112648 29.980776
13131  1 35.691400 47.112648 32.836088
13132  1 35.691400 47.112648 35.691400
13133  1 35.691400 47.112648 38.546712
13134  1 35.691400 47.112648 41.402024
13135  1 35.691400 47.112648 44.257336
13136  1 35.691400 47.112648 47.112648
13137  1 35.691400 47.112648 49.967960
13138  1 35.691400 47.112648 52.823272
13139  1 35.691400 47.112648 55.678584
13140  1 35.691400 49.967960  1.427656
13141  1 35.691400 49.967960  4.282968
13142  1 35.691400 49.967960  7.138280
13143  1 35.691400 49.967960  9.993592
13144  1 35.691400 49.967960 12.848904
13145  1 35.691400 49.967960 15.704216
13146  1 35.691400 49.967960 18.559528
13147  1 35.691400 49.967960 21.414840
13148  1 35.691400 49.967960 24.270152
13149  1 35.691400 49.967960 27.125464
13150  1 35.691400 49.967960 29.980776
13151  1 35.691400 49.967960 32.836088
13152  1 35.691400 49.967960 35.691400
13153  1 35.691400 49.967960 38.546712
13154  1 35.691400 49.967960 41.402024
13155  1 35.691400 49.967960 44.257336
13156  1 35.691400 49.967960 47.112648
13157  1 35.691400 49.967960 49.967960
13158  1 35.691400 49.967960 52.823272
13159  1 35.691400 49.967960 55.678584
13160  1 35.691400 52.823272  1.427656
13161  1 35.691400 52.823272  4.282968
13162  1 35.691400 52.823272  7.138280
13163  1 35.691400 52.823272  9.993592
13164  1 35.691400 52.823272 12.848904
13165  1 35.691400 52.823272 15.704216
13166  1 35.691400 52.823272 18.559528
13167  1 35.691400 52.823272 21.414840
13168  1 35.691400 52.823272 24.270152
13169  1 35.691400 52.823272 27.125464
13170  1 35.691400 52.823272 29.980776
13171  1 35.691400 52.823272 32.836088
13172  1 35.691400 52.823272 35.691400
13173  1 35.691400 52.823272 38.546712
13174  1 35.691400 52.823272 41.402024
13175  1 35.691400 52.823272 44.257336
13176  1 35.691400 52.823272 47.112648
13177  1 35.691400 52.823272 49.967960
13178  1 35.691400 52.823272 52.823272
13179  1 35.691400 52.823272 55.678584
13180  1 35.691400 55.678584  1.427656
13181  1 35.691400 55.678584  4.282968
13182  1 35.691400 55.678584  7.138280
13183  1 35.691400 55.678584  9.993592
13184  1 35.691400 55.678584 12.848904
13185  1 35.691400 55.678584 15.704216
13186  1 35.691400 55.678584 18.559528
13187  1 35.691400 55.678584 21.414840
13188  1 35.691400 55.678584 24.270152
13189  1 35.691400 55.678584 27.125464
13190  1 35.691400 55.678584 29.980776
13191  1 35.691400 55.678584 32.836088
13192  1 35.691400 55.678584 35.691400
13193  1 35.691400 55.678584 38.546712
13194  1 35.691400 55.678584 41.402024
13195  1 35.691400 55.678584 44.257336
13196  1 35.691400 55.678584 47.112648
13197  1 35.691400 55.678584 49.967960
13198  1 35.691400 55.678584 52.823272
13199  1 35.691400 55.678584 55.678584
13200  1 38.546712  1.427656  1.427656
13201  1 38.546712  1.427656  4.282968
13202  1 38.546712  1.427656  7.138280
13203  1 38.546712  1.427656  9.993592
13204  1 38.546712  1.427656 12.848904
13205  1 38.546712  1.427656 15.704216
13206  1 38.546712  1.427656 18.559528
13207  1 38.546712  1.427656 21.414840
13208  1 38.546712  1.427656 24.270152
13209  1 38.546712  1.427656 27.125464
13210  1 38.546712  1.427656 29.980776
13211  1 38.546712  1.427656 32.836088
13212  1 38.546712  1.427656 35.691400
13213  1 38.546712  1.427656 38.546712
13214  1 38.546712  1.427656 41.402024
13215  1 38.546712  1.427656 44.257336
13216  1 38.546712  1.427656 47.112648
13217  1 38.546712  1.427656 49.967960
13218  1 38.546712  1.427656 52.823272
13219  1 38.546712  1.427656 55.678584
13220  1 38.546712  4.282968  1.427656
13221  1 38.546712  4.282968  4.282968
13222  1 38.546712  4.282968  7.138280
13223  1 38.546712  4.282968  9.993592
13224  1 38.546712  4.282968 12.848904
13225  1 38.546712  4.282968 15.704216
13226  1 38.546712  4.282968 18.559528
13227  1 38.546712  4.282968 21.414840
13228  1 38.546712  4.282968 24.270152
13229  1 38.546712  4.282968 27.125464
13230  1 38.546712  4.282968 29.980776
13231  1 38.546712  4.282968 32.836088
13232  1 38.546712  4.282968 35.691400
13233  1 38.546712  4.282968 38.546712
13234  1 38.546712  4.282968 41.402024
13235  1 38.546712  4.282968 44.257336
13236  1 38.546712  4.282968 47.112648
13237  1 38.546712  4.282968 49.967960
13238  1 38.546712  4.282968 52.823272
13239  1 38.546712  4.282968 55.678584
13240  1 38.546712  7.138280  1.427656
13241  1 38.546712  7.138280  4.282968
13242  1 38.546712  7.138280  7.138280
13243  1 38.546712  7.138280  9.993592
13244  1 38.546712  7.138280 12.848904
13245  1 38.546712  7.138280 15.704216
13246  1 38.546712  7.138280 18.559528
13247  1 38.546712  7.138280 21.414840
13248  1 38.546712  7.138280 24.270152
13249  1 38.546712  7.138280 27.125464
13250  1 38.546712  7.138280 29.980776
13251  1 38.546712  7.138280 32.836088
13252  1 38.546712  7.138280 35.691400
13253  1 38.546712  7.138280 38.546712
13254  1 38.546712  7.138280 41.402024
13255  1 38.546712  7.138280 44.257336
13256  1 38.546712  7.138280 47.112648
13257  1 38.546712  7.138280 49.967960
13258  1 38.546712  7.138280 52.823272
13259  1 38.546712  7.138280 55.678584
13260  1 38.546712  9.993592  1.427656
13261  1 38.546712  9.993592  4.282968
13262  1 38.546712  9.993592  7.138280
13263  1 38.546712  9.993592  9.993592
13264  1 38.546712  9.993592 12.848904
13265  1 38.546712  9.993592 15.704216
13266  1 38.546712  9.993592 18.559528
13267  1 38.546712  9.993592 21.414840
13268  1 38.546712  9.993592 24.270152
13269  1 38.546712  9.993592 27.125464
13270  1 38.546712  9.993592 29.980776
13271  1 38.546712  9.993592 32.836088
13272  1 38.546712  9.993592 35.691400
13273  1 38.546712  9.993592 38.546712
13274  1 38.546712  9.993592 41.402024
13275  1 38.546712  9.993592 44.257336
13276  1 38.546712  9.993592 47.112648
13277  1 38.546712  9.993592 49.967960
13278  1 38.546712  9.993592 52.823272
13279  1 38.546712  9.993592 55.678584
13280  1 38.546712 12.848904  1.427656
13281  1 38.546712 12.848904  4.282968
13282  1 38.546712 12.848904  7.138280
13283  1 38.546712 12.848904  9.993592
13284  1 38.546712 12.848904 12.848904
13285  1 38.546712 12.848904 15.704216
13286  1 38.546712 12.848904 18.559528
13287  1 38.546712 12.848904 21.414840
13288  1 38.546712 12.848904 24.270152
13289  1 38.546712 12.848904 27.125464
13290  1 38.546712 12.848904 29.980776
13291  1 38.546712 12.848904 32.836088
13292  1 38.546712 12.848904 35.691400
13293  1 38.546712 12.848904 38.546712
13294  1 38.546712 12.848904 41.402024
13295  1 38.546712 12.848904 44.257336
13296  1 38.546712 12.848904 47.112648
13297  1 38.546712 12.848904 49.967960
13298  1 38.546712 12.848904 52.823272
13299  1 38.546712 12.848904 55.678584
13300  1 38.546712 15.704216  1.427656
13301  1 38.546712 15.704216  4.282968
13302  1 38.546712 15.704216  7.138280
13303  1 38.546712 15.704216  9.993592
13304  1 38.546712 15.704216 12.848904
13305  1 38.546712 15.704216 15.704216
13306  1 38.546712 15.704216 18.559528
13307  1 38.546712 15.704216 21.414840
13308  1 38.546712 15.704216 24.270152
13309  1 38.546712 15.704216 27.125464
13310  1 38.546712 15.704216 29.980776
13311  1 38.546712 15.704216 32.836088
13312  1 38.546712 15.704216 35.691400
13313  1 38.546712 15.704216 38.546712
13314  1 38.546712 15.704216 41.402024
13315  1 38.546712 15.704216 44.257336
13316  1 38.546712 15.704216 47.112648
13317  1 38.546712 15.704216 49.967960
13318  1 38.546712 15.704216 52.823272
13319  1 38.546712 15.704216 55.678584
13320  1 38.546712 18.559528  1.427656
13321  1 38.546712 18.559528  4.282968
13322  1 38.546712 18.559528  7.138280
13323  1 38.546712 18.559528  9.993592
13324  1 38.546712 18.559528 12.848904
13325  1 38.546712 18.559528 15.704216
13326  1 38.546712 18.559528 18.559528
13327  1 38.546712 18.559528 21.414840
13328  1 38.546712 18.559528 24.270152
13329  1 38.546712 18.559528 27.125464
13330  1 38.546712 18.559528 29.980776
13331  1 38.546712 18.559528 32.836088
13332  1 38.546712 18.559528 35.691400
13333  1 38.546712 18.559528 38.546712
13334  1 38.546712 18.559528 41.402024
13335  1 38.546712 18.559528 44.257336
13336  1 38.546712 18.559528 47.112648
13337  1 38.546712 18.559528 49.967960
13338  1 38.546712 18.559528 52.823272
13339  1 38.546712 18.559528 55.678584
13340  1 38.546712 21.414840  1.427656
13341  1 38.546712 21.414840  4.282968
13342  1 38.546712 21.414840  7.138280
13343  1 38.546712 21.414840  9.993592
13344  1 38.546712 21.414840 12.848904
13345  1 38.546712 21.414840 15.704216
13346  1 38.546712 21.414840 18.559528
13347  1 38.546712 21.414840 21.414840
13348  1 38.546712 21.414840 24.270152
13349  1 38.546712 21.414840 27.125464
13350  1 38.546712 21.414840 29.980776
13351  1 38.546712 21.414840 32.836088
13352  1 38.546712 21.414840 35.691400
13353  1 38.546712 21.414840 38.546712
13354  1 38.546712 21.414840 41.402024
13355  1 38.546712 21.414840 44.257336
13356  1 38.546712 21.414840 47.112648
13357  1 38.546712 21.414840 49.967960
13358  1 38.546712 21.414840 52.823272
13359  1 38.546712 21.414840 55.678584
13360  1 38.546712 24.270152  1.427656
13361  1 38.546712 24.270152  4.282968
13362  1 38.546712 24.270152  7.138280
13363  1 38.546712 24.270152  9.993592
13364  1 38.546712 24.270152 12.848904
13365  1 38.546712 24.270152 15.704216
13366  1 38.546712 24.270152 18.559528
13367  1 38.546712 24.270152 21.414840
13368  1 38.546712 24.270152 24.270152
13369  1 38.546712 24.270152 27.125464
13370  1 38.546712 24.270152 29.980776
13371  1 38.546712 24.270152 32.836088
13372  1 38.546712 24.270152 35.691400
13373  1 38.546712 24.270152 38.546712
13374  1 38.546712 24.270152 41.402024
13375  1 38.546712 24.270152 44.257336
13376  1 38.546712 24.270152 47.112648
13377  1 38.546712 24.270152 49.967960
13378  1 38.546712 24.270152 52.823272
13379  1 38.546712 24.270152 55.678584
13380  1 38.546712 27.125464  1.427656
13381  1 38.546712 27.125464  4.282968
13382  1 38.546712 27.125464  7.138280
13383  1 38.546712 27.125464  9.993592
13384  1 38.546712 27.125464 12.848904
13385  1 38.546712 27.125464 15.704216
13386  1 38.546712 27.125464 18.559528
13387  1 38.546712 27.125464 21.414840
13388  1 38.546712 27.125464 24.270152
13389  1 38.546712 27.125464 27.125464
13390  1 38.546712 27.125464 29.980776
13391  1 38.546712 27.125464 32.836088
13392  1 38.546712 27.125464 35.691400
13393  1 38.546712 27.125464 38.546712
13394  1 38.546712 27.125464 41.402024
13395  1 38.546712 27.125464 44.257336
13396  1 38.546712 27.125464 47.112648
13397  1 38.546712 27.125464 49.967960
13398  1 38.546712 27.125464 52.823272
13399  1 38.546712 27.125464 55.678584
13400  1 38.546712 29.980776  1.427656
13401  1 38.546712 29.980776  4.282968
13402  1 38.546712 29.980776  7.138280
13403  1 38.546712 29.980776  9.993592
13404  1 38.546712 29.980776 12.848904
13405  1 38.546712 29.980776 15.704216
13406  1 38.546712 29.980776 18.559528
13407  1 38.546712 29.980776 21.414840
13408  1 38.546712 29.980776 24.270152
13409  1 38.546712 29.980776 27.125464
13410  1 38.546712 29.980776 29.980776
13411  1 38.546712 29.980776 32.836088
13412  1 38.546712 29.980776 35.691400
13413  1 38.546712 29.980776 38.546712
13414  1 38.546712 29.980776 41.402024
13415  1 38.546712 29.980776 44.257336
13416  1 38.546712 29.980776 47.112648
13417  1 38.546712 29.980776 49.967960
13418  1 38.546712 29.980776 52.823272
13419  1 38.546712 29.980776 55.678584
13420  1 38.546712 32.836088  1.427656
13421  1 38.546712 32.836088  4.282968
13422  1 38.546712 32.836088  7.138280
13423  1 38.546712 32.836088  9.993592
13424  1 38.546712 32.836088 12.848904
13425  1 38.546712 32.836088 15.704216
13426  1 38.546712 32.836088 18.559528
13427  1 38.546712 32.836088 21.414840
13428  1 38.546712 32.836088 24.270152
13429  1 38.546712 32.836088 27.125464
13430  1 38.546712 32.836088 29.980776
13431  1 38.546712 32.836088 32.836088
13432  1 38.546712 32.836088 35.691400
13433  1 38.546712 32.836088 38.546712
13434  1 38.546712 32.836088 41.402024
13435  1 38.546712 32.836088 44.257336
13436  1 38.546712 32.836088 47.112648
13437  1 38.546712 32.836088 49.967960
13438  1 38.546712 32.836088 52.823272
13439  1 38.546712 32.836088 55.678584
13440  1 38.546712 35.691400  1.427656
13441  1 38.546712 35.691400  4.282968
13442  1 38.546712 35.691400  7.138280
13443  1 38.546712 35.691400  9.993592
13444  1 38.546712 35.691400 12.848904
13445  1 38.546712 35.691400 15.704216
13446  1 38.546712 35.691400 18.559528
13447  1 38.546712 35.691400 21.414840
13448  1 38.546712 35.691400 24.270152
13449  1 38.546712 35.691400 27.125464
13450  1 38.546712 35.691400 29.980776
13451  1 38.546712 35.691400 32.836088
13452  1 38.546712 35.691400 35.691400
13453  1 38.546712 35.691400 38.546712
13454  1 38.546712 35.691400 41.402024
13455  1 38.546712 35.691400 44.257336
13456  1 38.546712 35.691400 47.112648
13457  1 38.546712 35.691400 49.967960
13458  1 38.546712 35.691400 52.823272
13459  1 38.546712 35.691400 55.678584
13460  1 38.546712 38.546712  1.427656
13461  1 38.546712 38.546712  4.282968
13462  1 38.546712 38.546712  7.138280
13463  1 38.546712 38.546712  9.993592
13464  1 38.546712 38.546712 12.848904
13465  1 38.546712 38.546712 15.704216
13466  1 38.546712 38.546712 18.559528
13467  1 38.546712 38.546712 21.414840
13468  1 38.546712 38.546712 24.270152
13469  1 38.546712 38.546712 27.125464
13470  1 38.546712 38.546712 29.980776
13471  1 38.546712 38.546712 32.836088
13472  1 38.546712 38.546712 35.691400
13473  1 38.546712 38.546712 38.546712
13474  1 38.546712 38.546712 41.402024
13475  1 38.546712 38.546712 44.257336
13476  1 38.546712 38.546712 47.112648
13477  1 38.546712 38.546712 49.967960
13478  1 38.546712 38.546712 52.823272
13479  1 38.546712 38.546712 55.678584
13480  1 38.546712 41.402024  1.427656
13481  1 38.546712 41.402024  4.282968
13482  1 38.546712 41.402024  7.138280
13483  1 38.546712 41.402024  9.993592
13484  1 38.546712 41.402024 12.848904
13485  1 38.546712 41.402024 15.704216
13486  1 38.546712 41.402024 18.559528
13487  1 38.546712 41.402024 21.414840
13488  1 38.546712 41.402024 24.270152
13489  1 38.546712 41.402024 27.125464
13490  1 38.546712 41.402024 29.980776
13491  1 38.546712 41.402024 32.836088
13492  1 38.546712 41.402024 35.691400
13493  1 38.546712 41.402024 38.546712
13494  1 38.546712 41.402024 41.402024
13495  1 38.546712 41.402024 44.257336
13496  1 38.546712 41.402024 47.112648
13497  1 38.546712 41.402024 49.967960
13498  1 38.546712 41.402024 52.823272
13499  1 38.546712 41.402024 55.678584
13500  1 38.546712 44.257336  1.427656
13501  1 38.546712 44.257336  4.282968
13502  1 38.546712 44.257336  7.138280
13503  1 38.546712 44.257336  9.993592
13504  1 38.546712 44.257336 12.848904
13505  1 38.546712 44.257336 15.704216
13506  1 38.546712 44.257336 18.559528
13507  1 38.546712 44.257336 21.414840
13508  1 38.546712 44.257336 24.270152
13509  1 38.546712 44.257336 27.125464
13510  1 38.546712 44.257336 29.980776
13511  1 38.546712 44.257336 32.836088
13512  1 38.546712 44.257336 35.691400
13513  1 38.546712 44.257336 38.546712
13514  1 38.546712 44.257336 41.402024
13515  1 38.546712 44.257336 44.257336
13516  1 38.546712 44.257336 47.112648
13517  1 38.546712 44.257336 49.967960
13518  1 38.546712 44.257336 52.823272
13519  1 38.546712 44.257336 55.678584
13520  1 38.546712 47.112648  1.427656
13521  1 38.546712 47.112648  4.282968
13522  1 38.546712 47.112648  7.138280
13523  1 38.546712 47.112648  9.993592
13524  1 38.546712 47.112648 12.848904
13525  1 38.546712 47.112648 15.704216
13526  1 38.546712 47.112648 18.559528
13527  1 38.546712 47.112648 21.414840
13528  1 38.546712 47.112648 24.270152
13529  1 38.546712 47.112648 27.125464
13530  1 38.546712 47.112648 29.980776
13531  1 38.546712 47.112648 32.836088
13532  1 38.546712 47.112648 35.691400
13533  1 38.546712 47.112648 38.546712
13534  1 38.546712 47.112648 41.402024
13535  1 38.546712 47.112648 44.257336
13536  1 38.546712 47.112648 47.112648
13537  1 38.546712 47.112648 49.967960
13538  1 38.546712 47.112648 52.823272
13539  1 38.546712 47.112648 55.678584
13540  1 38.546712 49.967960  1.427656
13541  1 38.546712 49.967960  4.282968
13542  1 38.546712 49.967960  7.138280
13543  1 38.546712 49.967960  9.993592
13544  1 38.546712 49.967960 12.848904
13545  1 38.546712 49.967960 15.704216
13546  1 38.546712 49.967960 18.559528
13547  1 38.546712 49.967960 21.414840
13548  1 38.546712 49.967960 24.270152
13549  1 38.546712 49.967960 27.125464
13550  1 38.546712 49.967960 29.980776
13551  1 38.546712 49.967960 32.836088
13552  1 38.546712 49.967960 35.691400
13553  1 38.546712 49.967960 38.546712
13554  1 38.546712 49.967960 41.402024
13555  1 38.546712 49.967960 44.257336
13556  1 38.546712 49.967960 47.112648
13557  1 38.546712 49.967960 49.967960
13558  1 38.546712 49.967960 52.823272
13559  1 38.546712 49.967960 55.678584
13560  1 38.546712 52.823272  1.427656
13561  1 38.546712 52.823272  4.282968
13562  1 38.546712 52.823272  7.138280
13563  1 38.546712 52.823272  9.993592
13564  1 38.546712 52.823272 12.848904
13565  1 38.546712 52.823272 15.704216
13566  1 38.546712 52.823272 18.559528
13567  1 38.546712 52.823272 21.414840
13568  1 38.546712 52.823272 24.270152
13569  1 38.546712 52.823272 27.125464
13570  1 38.546712 52.823272 29.980776
13571  1 38.546712 52.823272 32.836088
13572  1 38.546712 52.823272 35.691400
13573  1 38.546712 52.823272 38.546712
13574  1 38.546712 52.823272 41.402024
13575  1 38.546712 52.823272 44.257336
13576  1 38.546712 52.823272 47.112648
13577  1 38.546712 52.823272 49.967960
13578  1 38.546712 52.823272 52.823272
13579  1 38.546712 52.823272 55.678584
13580  1 38.546712 55.678584  1.427656
13581  1 38.546712 55.678584  4.282968
13582  1 38.546712 55.678584  7.138280
13583  1 38.546712 55.678584  9.993592
13584  1 38.546712 55.678584 12.848904
13585  1 38.546712 55.678584 15.704216
13586  1 38.546712 55.678584 18.559528
13587  1 38.546712 55.678584 21.414840
13588  1 38.546712 55.678584 24.270152
13589  1 38.546712 55.678584 27.125464
13590  1 38.546712 55.678584 29.980776
13591  1 38.546712 55.678584 32.836088
13592  1 38.546712 55.678584 35.691400
13593  1 38.546712 55.678584 38.546712
13594  1 38.546712 55.678584 41.402024
13595  1 38.546712 55.678584 44.257336
13596  1 38.546712 55.678584 47.112648
13597  1 38.546712 55.678584 49.967960
13598  1 38.546712 55.678584 52.823272
13599  1 38.546712 55.678584 55.678584
13600  1 41.402024  1.427656  1.427656
13601  1 41.402024  1.427656  4.282968
13602  1 41.402024  1.427656  7.138280
13603  1 41.402024  1.427656  9.993592
13604  1 41.402024  1.427656 12.848904
13605  1 41.402024  1.427656 15.704216
13606  1 41.402024  1.427656 18.559528
13607  1 41.402024  1.427656 21.414840
13608  1 41.402024  1.427656 24.270152
13609  1 41.402024  1.427656 27.125464
13610  1 41.402024  1.427656 29.980776
13611  1 41.402024  1.427656 32.836088
13612  1 41.402024  1.427656 35.691400
13613  1 41.402024  1.427656 38.546712
13614  1 41.402024  1.427656 41.402024
13615  1 41.402024  1.427656 44.257336
13616  1 41.402024  1.427656 47.112648
13617  1 41.402024  1.427656 49.967960
13618  1 41.402024  1.427656 52.823272
13619  1 41.402024  1.427656 55.678584
13620  1 41.402024  4.282968  1.427656
13621  1 41.402024  4.282968  4.282968
13622  1 41.402024  4.282968  7.138280
13623  1 41.402024  4.282968  9.993592
13624  1 41.402024  4.282968 12.848904
13625  1 41.402024  4.282968 15.704216
13626  1 41.402024  4.282968 18.559528
13627  1 41.402024  4.282968 21.414840
13628  1 41.402024  4.282968 24.270152
13629  1 41.402024  4.282968 27.125464
13630  1 41.402024  4.282968 29.980776
13631  1 41.402024  4.282968 32.836088
13632  1 41.402024  4.282968 35.691400
13633  1 41.402024  4.282968 38.546712
13634  1 41.402024  4.282968 41.402024
13635  1 41.402024  4.282968 44.257336
13636  1 41.402024  4.282968 47.112648
13637  1 41.402024  4.282968 49.967960
13638  1 41.402024  4.282968 52.823272
13639  1 41.402024  4.282968 55.678584
13640  1 41.402024  7.138280  1.427656
13641  1 41.402024  7.138280  4.282968
13642  1 41.402024  7.138280  7.138280
13643  1 41.402024  7.138280  9.993592
13644  1 41.402024  7.138280 12.848904
13645  1 41.402024  7.138280 15.704216
13646  1 41.402024  7.138280 18.559528
13647  1 41.402024  7.138280 21.414840
13648  1 41.402024  7.138280 24.270152
13649  1 41.402024  7.138280 27.125464
13650  1 41.402024  7.138280 29.980776
13651  1 41.402024  7.138280 32.836088
13652  1 41.402024  7.138280 35.691400
13653  1 41.402024  7.138280 38.546712
13654  1 41.402024  7.138280 41.402024
13655  1 41.402024  7.138280 44.257336
13656  1 41.402024  7.138280 47.112648
13657  1 41.402024  7.138280 49.967960
13658  1 41.402024  7.138280 52.823272
13659  1 41.402024  7.138280 55.678584
13660  1 41.402024  9.993592  1.427656
13661  1 41.402024  9.993592  4.282968
13662  1 41.402024  9.993592  7.138280
13663  1 41.402024  9.993592  9.993592
13664  1 41.402024  9.993592 12.848904
13665  1 41.402024  9.993592 15.704216
13666  1 41.402024  9.993592 18.559528
13667  1 41.402024  9.993592 21.414840
13668  1 41.402024  9.993592 24.270152
13669  1 41.402024  9.993592 27.125464
13670  1 41.402024  9.993592 29.980776
13671  1 41.402024  9.993592 32.836088
13672  1 41.402024  9.993592 35.691400
13673  1 41.402024  9.993592 38.546712
13674  1 41.402024  9.993592 41.402024
13675  1 41.402024  9.993592 44.257336
13676  1 41.402024  9.993592 47.112648
13677  1 41.402024  9.993592 49.967960
13678  1 41.402024  9.993592 52.823272
13679  1 41.402024  9.993592 55.678584
13680  1 41.402024 12.848904  1.427656
13681  1 41.402024 12.848904  4.282968
13682  1 41.402024 12.848904  7.138280
13683  1 41.402024 12.848904  9.993592
13684  1 41.402024 12.848904 12.848904
13685  1 41.402024 12.848904 15.704216
13686  1 41.402024 12.848904 18.559528
13687  1 41.402024 12.848904 21.414840
13688  1 41.402024 12.848904 24.270152
13689  1 41.402024 12.848904 27.125464
13690  1 41.402024 12.848904 29.980776
13691  1 41.402024 12.848904 32.836088
13692  1 41.402024 12.848904 35.691400
13693  1 41.402024 12.848904 38.546712
13694  1 41.402024 12.848904 41.402024
13695  1 41.402024 12.848904 44.257336
13696  1 41.402024 12.848904 47.112648
13697  1 41.402024 12.848904 49.967960
13698  1 41.402024 12.848904 52.823272
13699  1 41.402024 12.848904 55.678584
13700  1 41.402024 15.704216  1.427656
13701  1 41.402024 15.704216  4.282968
13702  1 41.402024 15.704216  7.138280
13703  1 41.402024 15.704216  9.993592
13704  1 41.402024 15.704216 12.848904
13705  1 41.402024 15.704216 15.704216
13706  1 41.402024 15.704216 18.559528
13707  1 41.402024 15.704216 21.414840
13708  1 41.402024 15.704216 24.270152
13709  1 41.402024 15.704216 27.125464
13710  1 41.402024 15.704216 29.980776
13711  1 41.402024 15.704216 32.836088
13712  1 41.402024 15.704216 35.691400
13713  1 41.402024 15.704216 38.546712
13714  1 41.402024 15.704216 41.402024
13715  1 41.402024 15.704216 44.257336
13716  1 41.402024 15.704216 47.112648
13717  1 41.402024 15.704216 49.967960
13718  1 41.402024 15.704216 52.823272
13719  1 41.402024 15.704216 55.678584
13720  1 41.402024 18.559528  1.427656
13721  1 41.402024 18.559528  4.282968
13722  1 41.402024 18.559528  7.138280
13723  1 41.402024 18.559528  9.993592
13724  1 41.402024 18.559528 12.848904
13725  1 41.402024 18.559528 15.704216
13726  1 41.402024 18.559528 18.559528
13727  1 41.402024 18.559528 21.414840
13728  1 41.402024 18.559528 24.270152
13729  1 41.402024 18.559528 27.125464
13730  1 41.402024 18.559528 29.980776
13731  1 41.402024 18.559528 32.836088
13732  1 41.402024 18.559528 35.691400
13733  1 41.402024 18.559528 38.546712
13734  1 41.402024 18.559528 41.402024
13735  1 41.402024 18.559528 44.257336
13736  1 41.402024 18.559528 47.112648
13737  1 41.402024 18.559528 49.967960
13738  1 41.402024 18.559528 52.823272
13739  1 41.402024 18.559528 55.678584
13740  1 41.402024 21.414840  1.427656
13741  1 41.402024 21.414840  4.282968
13742  1 41.402024 21.414840  7.138280
13743  1 41.402024 21.414840  9.993592
13744  1 41.402024 21.414840 12.848904
13745  1 41.402024 21.414840 15.704216
13746  1 41.402024 21.414840 18.559528
13747  1 41.402024 21.414840 21.414840
13748  1 41.402024 21.414840 24.270152
13749  1 41.402024 21.414840 27.125464
13750  1 41.402024 21.414840 29.980776
13751  1 41.402024 21.414840 32.836088
13752  1 41.402024 21.414840 35.691400
13753  1 41.402024 21.414840 38.546712
13754  1 41.402024 21.414840 41.402024
13755  1 41.402024 21.414840 44.257336
13756  1 41.402024 21.414840 47.112648
13757  1 41.402024 21.414840 49.967960
13758  1 41.402024 21.414840 52.823272
13759  1 41.402024 21.414840 55.678584
13760  1 41.402024 24.270152  1.427656
13761  1 41.402024 24.270152  4.282968
13762  1 41.402024 24.270152  7.138280
13763  1 41.402024 24.270152  9.993592
13764  1 41.402024 24.270152 12.848904
13765  1 41.402024 24.270152 15.704216
13766  1 41.402024 24.270152 18.559528
13767  1 41.402024 24.270152 21.414840
13768  1 41.402024 24.270152 24.270152
13769  1 41.402024 24.270152 27.125464
13770  1 41.402024 24.270152 29.980776
13771  1 41.402024 24.270152 32.836088
13772  1 41.402024 24.270152 35.691400
13773  1 41.402024 24.270152 38.546712
13774  1 41.402024 24.270152 41.402024
13775  1 41.402024 24.270152 44.257336
13776  1 41.402024 24.270152 47.112648
13777  1 41.402024 24.270152 49.967960
13778  1 41.402024 24.270152 52.823272
13779  1 41.402024 24.270152 55.678584
13780  1 41.402024 27.125464  1.427656
13781  1 41.402024 27.125464  4.282968
13782  1 41.402024 27.125464  7.138280
13783  1 41.402024 27.125464  9.993592
13784  1 41.402024 27.125464 12.848904
13785  1 41.402024 27.125464 15.704216
13786  1 41.402024 27.125464 18.559528
13787  1 41.402024 27.125464 21.414840
13788  1 41.402024 27.125464 24.270152
13789  1 41.402024 27.125464 27.125464
13790  1 41.402024 27.125464 29.980776
13791  1 41.402024 27.125464 32.836088
13792  1 41.402024 27.125464 35.691400
13793  1 41.402024 27.125464 38.546712
13794  1 41.402024 27.125464 41.402024
13795  1 41.402024 27.125464 44.257336
13796  1 41.402024 27.125464 47.112648
13797  1 41.402024 27.125464 49.967960
13798  1 41.402024 27.125464 52.823272
13799  1 41.402024 27.125464 55.678584
13800  1 41.402024 29.980776  1.427656
13801  1 41.402024 29.980776  4.282968
13802  1 41.402024 29.980776  7.138280
13803  1 41.402024 29.980776  9.993592
13804  1 41.402024 29.980776 12.848904
13805  1 41.402024 29.980776 15.704216
13806  1 41.402024 29.980776 18.559528
13807  1 41.402024 29.980776 21.414840
13808  1 41.402024 29.980776 24.270152
13809  1 41.402024 29.980776 27.125464
13810  1 41.402024 29.980776 29.980776
13811  1 41.402024 29.980776 32.836088
13812  1 41.402024 29.980776 35.691400
13813  1 41.402024 29.980776 38.546712
13814  1 41.402024 29.980776 41.402024
13815  1 41.402024 29.980776 44.257336
13816  1 41.402024 29.980776 47.112648
13817  1 41.402024 29.980776 49.967960
13818  1 41.402024 29.980776 52.823272
13819  1 41.402024 29.980776 55.678584
13820  1 41.402024 32.836088  1.427656
13821  1 41.402024 32.836088  4.282968
13822  1 41.402024 32.836088  7.138280
13823  1 41.402024 32.836088  9.993592
13824  1 41.402024 32.836088 12.848904
13825  1 41.402024 32.836088 15.704216
13826  1 41.402024 32.836088 18.559528
13827  1 41.402024 32.836088 21.414840
13828  1 41.402024 32.836088 24.270152
13829  1 41.402024 32.836088 27.125464
13830  1 41.402024 32.836088 29.980776
13831  1 41.402024 32.836088 32.836088
13832  1 41.402024 32.836088 35.691400
13833  1 41.402024 32.836088 38.546712
13834  1 41.402024 32.836088 41.402024
13835  1 41.402024 32.836088 44.257336
13836  1 41.402024 32.836088 47.112648
13837  1 41.402024 32.836088 49.967960
13838  1 41.402024 32.836088 52.823272
13839  1 41.402024 32.836088 55.678584
13840  1 41.402024 35.691400  1.427656
13841  1 41.402024 35.691400  4.282968
13842  1 41.402024 35.691400  7.138280
13843  1 41.402024 35.691400  9.993592
13844  1 41.402024 35.691400 12.848904
13845  1 41.402024 35.691400 15.704216
13846  1 41.402024 35.691400 18.559528
13847  1 41.402024 35.691400 21.414840
13848  1 41.402024 35.691400 24.270152
13849  1 41.402024 35.691400 27.125464
13850  1 41.402024 35.691400 29.980776
13851  1 41.402024 35.691400 32.836088
13852  1 41.402024 35.691400 35.691400
13853  1 41.402024 35.691400 38.546712
13854  1 41.402024 35.691400 41.402024
13855  1 41.402024 35.691400 44.257336
13856  1 41.402024 35.691400 47.112648
13857  1 41.402024 35.691400 49.967960
13858  1 41.402024 35.691400 52.823272
13859  1 41.402024 35.691400 55.678584
13860  1 41.402024 38.546712  1.427656
13861  1 41.402024 38.546712  4.282968
13862  1 41.402024 38.546712  7.138280
13863  1 41.402024 38.546712  9.993592
13864  1 41.402024 38.546712 12.848904
13865  1 41.402024 38.546712 15.704216
13866  1 41.402024 38.546712 18.559528
13867  1 41.402024 38.546712 21.414840
13868  1 41.402024 38.546712 24.270152
13869  1 41.402024 38.546712 27.125464
13870  1 41.402024 38.546712 29.980776
13871  1 41.402024 38.546712 32.836088
13872  1 41.402024 38.546712 35.691400
13873  1 41.402024 38.546712 38.546712
13874  1 41.402024 38.546712 41.402024
13875  1 41.402024 38.546712 44.257336
13876  1 41.402024 38.546712 47.112648
13877  1 41.402024 38.546712 49.967960
13878  1 41.402024 38.546712 52.823272
13879  1 41.402024 38.546712 55.678584
13880  1 41.402024 41.402024  1.427656
13881  1 41.402024 41.402024  4.282968
13882  1 41.402024 41.402024  7.138280
13883  1 41.402024 41.402024  9.993592
13884  1 41.402024 41.402024 12.848904
13885  1 41.402024 41.402024 15.704216
13886  1 41.402024 41.402024 18.559528
13887  1 41.402024 41.402024 21.414840
13888  1 41.402024 41.402024 24.270152
13889  1 41.402024 41.402024 27.125464
13890  1 41.402024 41.402024 29.980776
13891  1 41.402024 41.402024 32.836088
13892  1 41.402024 41.402024 35.691400
13893  1 41.402024 41.402024 38.546712
13894  1 41.402024 41.402024 41.402024
13895  1 41.402024 41.402024 44.257336
13896  1 41.402024 41.402024 47.112648
13897  1 41.402024 41.402024 49.967960
13898  1 41.402024 41.402024 52.823272
13899  1 41.402024 41.402024 55.678584
13900  1 41.402024 44.257336  1.427656
13901  1 41.402024 44.257336  4.282968
13902  1 41.402024 44.257336  7.138280
13903  1 41.402024 44.257336  9.993592
13904  1 41.402024 44.257336 12.848904
13905  1 41.402024 44.257336 15.704216
13906  1 41.402024 44.257336 18.559528
13907  1 41.402024 44.257336 21.414840
13908  1 41.402024 44.257336 24.270152
13909  1 41.402024 44.257336 27.125464
13910  1 41.402024 44.257336 29.980776
13911  1 41.402024 44.257336 32.836088
13912  1 41.402024 44.257336 35.691400
13913  1 41.402024 44.257336 38.546712
13914  1 41.402024 44.257336 41.402024
13915  1 41.402024 44.257336 44.257336
13916  1 41.402024 44.257336 47.112648
13917  1 41.402024 44.257336 49.967960
13918  1 41.402024 44.257336 52.823272
13919  1 41.402024 44.257336 55.678584
13920  1 41.402024 47.112648  1.427656
13921  1 41.402024 47.112648  4.282968
13922  1 41.402024 47.112648  7.138280
13923  1 41.402024 47.112648  9.993592
13924  1 41.402024 47.112648 12.848904
13925  1 41.402024 47.112648 15.704216
13926  1 41.402024 47.112648 18.559528
13927  1 41.402024 47.112648 21.414840
13928  1 41.402024 47.112648 24.270152
13929  1 41.402024 47.112648 27.125464
13930  1 41.402024 47.112648 29.980776
13931  1 41.402024 47.112648 32.836088
13932  1 41.402024 47.112648 35.691400
13933  1 41.402024 47.112648 38.546712
13934  1 41.402024 47.112648 41.402024
13935  1 41.402024 47.112648 44.257336
13936  1 41.402024 47.112648 47.112648
13937  1 41.402024 47.112648 49.967960
13938  1 41.402024 47.112648 52.823272
13939  1 41.402024 47.112648 55.678584
13940  1 41.402024 49.967960  1.427656
13941  1 41.402024 49.967960  4.282968
13942  1 41.402024 49.967960  7.138280
13943  1 41.402024 49.967960  9.993592
13944  1 41.402024 49.967960 12.848904
13945  1 41.402024 49.967960 15.704216
13946  1 41.402024 49.967960 18.559528
13947  1 41.402024 49.967960 21.414840
13948  1 41.402024 49.967960 24.270152
13949  1 41.402024 49.967960 27.125464
13950  1 41.402024 49.967960 29.980776
13951  1 41.402024 49.967960 32.836088
13952  1 41.402024 49.967960 35.691400
13953  1 41.402024 49.967960 38.546712
13954  1 41.402024 49.967960 41.402024
13955  1 41.402024 49.967960 44.257336
13956  1 41.402024 49.967960 47.112648
13957  1 41.402024 49.967960 49.967960
13958  1 41.402024 49.967960 52.823272
13959  1 41.402024 49.967960 55.678584
13960  1 41.402024 52.823272  1.427656
13961  1 41.402024 52.823272  4.282968
13962  1 41.402024 52.823272  7.138280
13963  1 41.402024 52.823272  9.993592
13964  1 41.402024 52.823272 12.848904
13965  1 41.402024 52.823272 15.704216
13966  1 41.402024 52.823272 18.559528
13967  1 41.402024 52.823272 21.414840
13968  1 41.402024 52.823272 24.270152
13969  1 41.402024 52.823272 27.125464
13970  1 41.402024 52.823272 29.980776
13971  1 41.402024 52.823272 32.836088
13972  1 41.402024 52.823272 35.691400
13973  1 41.402024 52.823272 38.546712
13974  1 41.402024 52.823272 41.402024
13975  1 41.402024 52.823272 44.257336
13976  1 41.402024 52.823272 47.112648
13977  1 41.402024 52.823272 49.967960
13978  1 41.402024 52.823272 52.823272
13979  1 41.402024 52.823272 55.678584
13980  1 41.402024 55.678584  1.427656
13981  1 41.402024 55.678584  4.282968
13982  1 41.402024 55.678584  7.138280
13983  1 41.402024 55.678584  9.993592
13984  1 41.402024 55.678584 12.848904
13985  1 41.402024 55.678584 15.704216
13986  1 41.402024 55.678584 18.559528
13987  1 41.402024 55.678584 21.414840
13988  1 41.402024 55.678584 24.270152
13989  1 41.402024 55.678584 27.125464
13990  1 41.402024 55.678584 29.980776
13991  1 41.402024 55.678584 32.836088
13992  1 41.402024 55.678584 35.691400
13993  1 41.402024 55.678584 38.546712
13994  1 41.402024 55.678584 41.402024
13995  1 41.402024 55.678584 44.257336
13996  1 41.402024 55.678584 47.112648
13997  1 41.402024 55.678584 49.967960
13998  1 41.402024 55.678584 52.823272
13999  1 41.402024 55.678584 55.678584
14000  1 44.257336  1.427656  1.427656
14001  1 44.257336  1.427656  4.282968
14002  1 44.257336  1.427656  7.138280
14003  1 44.257336  1.427656  9.993592
14004  1 44.257336  1.427656 12.848904
14005  1 44.257336  1.427656 15.704216
14006  1 44.257336  1.427656 18.559528
14007  1 44.257336  1.427656 21.414840
14008  1 44.257336  1.427656 24.270152
14009  1 44.257336  1.427656 27.125464
14010  1 44.257336  1.427656 29.980776
14011  1 44.257336  1.427656 32.836088
14012  1 44.257336  1.427656 35.691400
14013  1 44.257336  1.427656 38.546712
14014  1 44.257336  1.427656 41.402024
14015  1 44.257336  1.427656 44.257336
14016  1 44.257336  1.427656 47.112648
14017  1 44.257336  1.427656 49.967960
14018  1 44.257336  1.427656 52.823272
14019  1 44.257336  1.427656 55.678584
14020  1 44.257336  4.282968  1.427656
14021  1 44.257336  4.282968  4.282968
14022  1 44.257336  4.282968  7.138280
14023  1 44.257336  4.282968  9.993592
14024  1 44.257336  4.282968 12.848904
14025  1 44.257336  4.282968 15.704216
14026  1 44.257336  4.282968 18.559528
14027  1 44.257336  4.282968 21.414840
14028  1 44.257336  4.282968 24.270152
14029  1 44.257336  4.282968 27.125464
14030  1 44.257336  4.282968 29.980776
14031  1 44.257336  4.282968 32.836088
14032  1 44.257336  4.282968 35.691400
14033  1 44.257336  4.282968 38.546712
14034  1 44.257336  4.282968 41.402024
14035  1 44.257336  4.282968 44.257336
14036  1 44.257336  4.282968 47.112648
14037  1 44.257336  4.282968 49.967960
14038  1 44.257336  4.282968 52.823272
14039  1 44.257336  4.282968 55.678584
14040  1 44.257336  7.138280  1.427656
14041  1 44.257336  7.138280  4.282968
14042  1 44.257336  7.138280  7.138280
14043  1 44.257336  7.138280  9.993592
14044  1 44.257336  7.138280 12.848904
14045  1 44.257336  7.138280 15.704216
14046  1 44.257336  7.138280 18.559528
14047  1 44.257336  7.138280 21.414840
14048  1 44.257336  7.138280 24.270152
14049  1 44.257336  7.138280 27.125464
14050  1 44.257336  7.138280 29.980776
14051  1 44.257336  7.138280 32.836088
14052  1 44.257336  7.138280 35.691400
14053  1 44.257336  7.138280 38.546712
14054  1 44.257336  7.138280 41.402024
14055  1 44.257336  7.138280 44.257336
14056  1 44.257336  7.138280 47.112648
14057  1 44.257336  7.138280 49.967960
14058  1 44.257336  7.138280 52.823272
14059  1 44.257336  7.138280 55.678584
14060  1 44.257336  9.993592  1.427656
14061  1 44.257336  9.993592  4.282968
14062  1 44.257336  9.993592  7.138280
14063  1 44.257336  9.993592  9.993592
14064  1 44.257336  9.993592 12.848904
14065  1 44.257336  9.993592 15.704216
14066  1 44.257336  9.993592 18.559528
14067  1 44.257336  9.993592 21.414840
14068  1 44.257336  9.993592 24.270152
14069  1 44.257336  9.993592 27.125464
14070  1 44.257336  9.993592 29.980776
14071  1 44.257336  9.993592 32.836088
14072  1 44.257336  9.993592 35.691400
14073  1 44.257336  9.993592 38.546712
14074  1 44.257336  9.993592 41.402024
14075  1 44.257336  9.993592 44.257336
14076  1 44.257336  9.993592 47.112648
14077  1 44.257336  9.993592 49.967960
14078  1 44.257336  9.993592 52.823272
14079  1 44.257336  9.993592 55.678584
14080  1 44.257336 12.848904  1.427656
14081  1 44.257336 12.848904  4.282968
14082  1 44.257336 12.848904  7.138280
14083  1 44.257336 12.848904  9.993592
14084  1 44.257336 12.848904 12.848904
14085  1 44.257336 12.848904 15.704216
14086  1 44.257336 12.848904 18.559528
14087  1 44.257336 12.848904 21.414840
14088  1 44.257336 12.848904 24.270152
14089  1 44.257336 12.848904 27.125464
14090  1 44.257336 12.848904 29.980776
14091  1 44.257336 12.848904 32.836088
14092  1 44.257336 12.848904 35.691400
14093  1 44.257336 12.848904 38.546712
14094  1 44.257336 12.848904 41.402024
14095  1 44.257336 12.848904 44.257336
14096  1 44.257336 12.848904 47.112648
14097  1 44.257336 12.848904 49.967960
14098  1 44.257336 12.848904 52.823272
14099  1 44.257336 12.848904 55.678584
14100  1 44.257336 15.704216  1.427656
14101  1 44.257336 15.704216  4.282968
14102  1 44.257336 15.704216  7.138280
14103  1 44.257336 15.704216  9.993592
14104  1 44.257336 15.704216 12.848904
14105  1 44.257336 15.704216 15.704216
14106  1 44.257336 15.704216 18.559528
14107  1 44.257336 15.704216 21.414840
14108  1 44.257336 15.704216 24.270152
14109  1 44.257336 15.704216 27.125464
14110  1 44.257336 15.704216 29.980776
14111  1 44.257336 15.704216 32.836088
14112  1 44.257336 15.704216 35.691400
14113  1 44.257336 15.704216 38.546712
14114  1 44.257336 15.704216 41.402024
14115  1 44.257336 15.704216 44.257336
14116  1 44.257336 15.704216 47.112648
14117  1 44.257336 15.704216 49.967960
14118  1 44.257336 15.704216 52.823272
14119  1 44.257336 15.704216 55.678584
14120  1 44.257336 18.559528  1.427656
14121  1 44.257336 18.559528  4.282968
14122  1 44.257336 18.559528  7.138280
14123  1 44.257336 18.559528  9.993592
14124  1 44.257336 18.559528 12.848904
14125  1 44.257336 18.559528 15.704216
14126  1 44.257336 18.559528 18.559528
14127  1 44.257336 18.559528 21.414840
14128  1 44.257336 18.559528 24.270152
14129  1 44.257336 18.559528 27.125464
14130  1 44.257336 18.559528 29.980776
14131  1 44.257336 18.559528 32.836088
14132  1 44.257336 18.559528 35.691400
14133  1 44.257336 18.559528 38.546712
14134  1 44.257336 18.559528 41.402024
14135  1 44.257336 18.559528 44.257336
14136  1 44.257336 18.559528 47.112648
14137  1 44.257336 18.559528 49.967960
14138  1 44.257336 18.559528 52.823272
14139  1 44.257336 18.559528 55.678584
14140  1 44.257336 21.414840  1.427656
14141  1 44.257336 21.414840  4.282968
14142  1 44.257336 21.414840  7.138280
14143  1 44.257336 21.414840  9.993592
14144  1 44.257336 21.414840 12.848904
14145  1 44.257336 21.414840 15.704216
14146  1 44.257336 21.414840 18.559528
14147  1 44.257336 21.414840 21.414840
14148  1 44.257336 21.414840 24.270152
14149  1 44.257336 21.414840 27.125464
14150  1 44.257336 21.414840 29.980776
14151  1 44.257336 21.414840 32.836088
14152  1 44.257336 21.414840 35.691400
14153  1 44.257336 21.414840 38.546712
14154  1 44.257336 21.414840 41.402024
14155  1 44.257336 21.414840 44.257336
14156  1 44.257336 21.414840 47.112648
14157  1 44.257336 21.414840 49.967960
14158  1 44.257336 21.414840 52.823272
14159  1 44.257336 21.414840 55.678584
14160  1 44.257336 24.270152  1.427656
14161  1 44.257336 24.270152  4.282968
14162  1 44.257336 24.270152  7.138280
14163  1 44.257336 24.270152  9.993592
14164  1 44.257336 24.270152 12.848904
14165  1 44.257336 24.270152 15.704216
14166  1 44.257336 24.270152 18.559528
14167  1 44.257336 24.270152 21.414840
14168  1 44.257336 24.270152 24.270152
14169  1 44.257336 24.270152 27.125464
14170  1 44.257336 24.270152 29.980776
14171  1 44.257336 24.270152 32.836088
14172  1 44.257336 24.270152 35.691400
14173  1 44.257336 24.270152 38.546712
14174  1 44.257336 24.270152 41.402024
14175  1 44.257336 24.270152 44.257336
14176  1 44.257336 24.270152 47.112648
14177  1 44.257336 24.270152 49.967960
14178  1 44.257336 24.270152 52.823272
14179  1 44.257336 24.270152 55.678584
14180  1 44.257336 27.125464  1.427656
14181  1 44.257336 27.125464  4.282968
14182  1 44.257336 27.125464  7.138280
14183  1 44.257336 27.125464  9.993592
14184  1 44.257336 27.125464 12.848904
14185  1 44.257336 27.125464 15.704216
14186  1 44.257336 27.125464 18.559528
14187  1 44.257336 27.125464 21.414840
14188  1 44.257336 27.125464 24.270152
14189  1 44.257336 27.125464 27.125464
14190  1 44.257336 27.125464 29.980776
14191  1 44.257336 27.125464 32.836088
14192  1 44.257336 27.125464 35.691400
14193  1 44.257336 27.125464 38.546712
14194  1 44.257336 27.125464 41.402024
14195  1 44.257336 27.125464 44.257336
14196  1 44.257336 27.125464 47.112648
14197  1 44.257336 27.125464 49.967960
14198  1 44.257336 27.125464 52.823272
14199  1 44.257336 27.125464 55.678584
14200  1 44.257336 29.980776  1.427656
14201  1 44.257336 29.980776  4.282968
14202  1 44.257336 29.980776  7.138280
14203  1 44.257336 29.980776  9.993592
14204  1 44.257336 29.980776 12.848904
14205  1 44.257336 29.980776 15.704216
14206  1 44.257336 29.980776 18.559528
14207  1 44.257336 29.980776 21.414840
14208  1 44.257336 29.980776 24.270152
14209  1 44.257336 29.980776 27.125464
14210  1 44.257336 29.980776 29.980776
14211  1 44.257336 29.980776 32.836088
14212  1 44.257336 29.980776 35.691400
14213  1 44.257336 29.980776 38.546712
14214  1 44.257336 29.980776 41.402024
14215  1 44.257336 29.980776 44.257336
14216  1 44.257336 29.980776 47.112648
14217  1 44.257336 29.980776 49.967960
14218  1 44.257336 29.980776 52.823272
14219  1 44.257336 29.980776 55.678584
14220  1 44.257336 32.836088  1.427656
14221  1 44.257336 32.836088  4.282968
14222  1 44.257336 32.836088  7.138280
14223  1 44.257336 32.836088  9.993592
14224  1 44.257336 32.836088 12.848904
14225  1 44.257336 32.836088 15.704216
14226  1 44.257336 32.836088 18.559528
14227  1 44.257336 32.836088 21.414840
14228  1 44.257336 32.836088 24.270152
14229  1 44.257336 32.836088 27.125464
14230  1 44.257336 32.836088 29.980776
14231  1 44.257336 32.836088 32.836088
14232  1 44.257336 32.836088 35.691400
14233  1 44.257336 32.836088 38.546712
14234  1 44.257336 32.836088 41.402024
14235  1 44.257336 32.836088 44.257336
14236  1 44.257336 32.836088 47.112648
14237  1 44.257336 32.836088 49.967960
14238  1 44.257336 32.836088 52.823272
14239  1 44.257336 32.836088 55.678584
14240  1 44.257336 35.691400  1.427656
14241  1 44.257336 35.691400  4.282968
14242  1 44.257336 35.691400  7.138280
14243  1 44.257336 35.691400  9.993592
14244  1 44.257336 35.691400 12.848904
14245  1 44.257336 35.691400 15.704216
14246  1 44.257336 35.691400 18.559528
14247  1 44.257336 35.691400 21.414840
14248  1 44.257336 35.691400 24.270152
14249  1 44.257336 35.691400 27.125464
14250  1 44.257336 35.691400 29.980776
14251  1 44.257336 35.691400 32.836088
14252  1 44.257336 35.691400 35.691400
14253  1 44.257336 35.691400 38.546712
14254  1 44.257336 35.691400 41.402024
14255  1 44.257336 35.691400 44.257336
14256  1 44.257336 35.691400 47.112648
14257  1 44.257336 35.691400 49.967960
14258  1 44.257336 35.691400 52.823272
14259  1 44.257336 35.691400 55.678584
14260  1 44.257336 38.546712  1.427656
14261  1 44.257336 38.546712  4.282968
14262  1 44.257336 38.546712  7.138280
14263  1 44.257336 38.546712  9.993592
14264  1 44.257336 38.546712 12.848904
14265  1 44.257336 38.546712 15.704216
14266  1 44.257336 38.546712 18.559528
14267  1 44.257336 38.546712 21.414840
14268  1 44.257336 38.546712 24.270152
14269  1 44.257336 38.546712 27.125464
14270  1 44.257336 38.546712 29.980776
14271  1 44.257336 38.546712 32.836088
14272  1 44.257336 38.546712 35.691400
14273  1 44.257336 38.546712 38.546712
14274  1 44.257336 38.546712 41.402024
14275  1 44.257336 38.546712 44.257336
14276  1 44.257336 38.546712 47.112648
14277  1 44.257336 38.546712 49.967960
14278  1 44.257336 38.546712 52.823272
14279  1 44.257336 38.546712 55.678584
14280  1 44.257336 41.402024  1.427656
14281  1 44.257336 41.402024  4.282968
14282  1 44.257336 41.402024  7.138280
14283  1 44.257336 41.402024  9.993592
14284  1 44.257336 41.402024 12.848904
14285  1 44.257336 41.402024 15.704216
14286  1 44.257336 41.402024 18.559528
14287  1 44.257336 41.402024 21.414840
14288  1 44.257336 41.402024 24.270152
14289  1 44.257336 41.402024 27.125464
14290  1 44.257336 41.402024 29.980776
14291  1 44.257336 41.402024 32.836088
14292  1 44.257336 41.402024 35.691400
14293  1 44.257336 41.402024 38.546712
14294  1 44.257336 41.402024 41.402024
14295  1 44.257336 41.402024 44.257336
14296  1 44.257336 41.402024 47.112648
14297  1 44.257336 41.402024 49.967960
14298  1 44.257336 41.402024 52.823272
14299  1 44.257336 41.402024 55.678584
14300  1 44.257336 44.257336  1.427656
14301  1 44.257336 44.257336  4.282968
14302  1 44.257336 44.257336  7.138280
14303  1 44.257336 44.257336  9.993592
14304  1 44.257336 44.257336 12.848904
14305  1 44.257336 44.257336 15.704216
14306  1 44.257336 44.257336 18.559528
14307  1 44.257336 44.257336 21.414840
14308  1 44.257336 44.257336 24.270152
14309  1 44.257336 44.257336 27.125464
14310  1 44.257336 44.257336 29.980776
14311  1 44.257336 44.257336 32.836088
14312  1 44.257336 44.257336 35.691400
14313  1 44.257336 44.257336 38.546712
14314  1 44.257336 44.257336 41.402024
14315  1 44.257336 44.257336 44.257336
14316  1 44.257336 44.257336 47.112648
14317  1 44.257336 44.257336 49.967960
14318  1 44.257336 44.257336 52.823272
14319  1 44.257336 44.257336 55.678584
14320  1 44.257336 47.112648  1.427656
14321  1 44.257336 47.112648  4.282968
14322  1 44.257336 47.112648  7.138280
14323  1 44.257336 47.112648  9.993592
14324  1 44.257336 47.112648 12.848904
14325  1 44.257336 47.112648 15.704216
14326  1 44.257336 47.112648 18.559528
14327  1 44.257336 47.112648 21.414840
14328  1 44.257336 47.112648 24.270152
14329  1 44.257336 47.112648 27.125464
14330  1 44.257336 47.112648 29.980776
14331  1 44.257336 47.112648 32.836088
14332  1 44.257336 47.112648 35.691400
14333  1 44.257336 47.112648 38.546712
14334  1 44.257336 47.112648 41.402024
14335  1 44.257336 47.112648 44.257336
14336  1 44.257336 47.112648 47.112648
14337  1 44.257336 47.112648 49.967960
14338  1 44.257336 47.112648 52.823272
14339  1 44.257336 47.112648 55.678584
14340  1 44.257336 49.967960  1.427656
14341  1 44.257336 49.967960  4.282968
14342  1 44.257336 49.967960  7.138280
14343  1 44.257336 49.967960  9.993592
14344  1 44.257336 49.967960 12.848904
14345  1 44.257336 49.967960 15.704216
14346  1 44.257336 49.967960 18.559528
14347  1 44.257336 49.967960 21.414840
14348  1 44.257336 49.967960 24.270152
14349  1 44.257336 49.967960 27.125464
14350  1 44.257336 49.967960 29.980776
14351  1 44.257336 49.967960 32.836088
14352  1 44.257336 49.967960 35.691400
14353  1 44.257336 49.967960 38.546712
14354  1 44.257336 49.967960 41.402024
14355  1 44.257336 49.967960 44.257336
14356  1 44.257336 49.967960 47.112648
14357  1 44.257336 49.967960 49.967960
14358  1 44.257336 49.967960 52.823272
14359  1 44.257336 49.967960 55.678584
14360  1 44.257336 52.823272  1.427656
14361  1 44.257336 52.823272  4.282968
14362  1 44.257336 52.823272  7.138280
14363  1 44.257336 52.823272  9.993592
14364  1 44.257336 52.823272 12.848904
14365  1 44.257336 52.823272 15.704216
14366  1 44.257336 52.823272 18.559528
14367  1 44.257336 52.823272 21.414840
14368  1 44.257336 52.823272 24.270152
14369  1 44.257336 52.823272 27.125464
14370  1 44.257336 52.823272 29.980776
14371  1 44.257336 52.823272 32.836088
14372  1 44.257336 52.823272 35.691400
14373  1 44.257336 52.823272 38.546712
14374  1 44.257336 52.823272 41.402024
14375  1 44.257336 52.823272 44.257336
14376  1 44.257336 52.823272 47.112648
14377  1 44.257336 52.823272 49.967960
14378  1 44.257336 52.823272 52.823272
14379  1 44.257336 52.823272 55.678584
14380  1 44.257336 55.678584  1.427656
14381  1 44.257336 55.678584  4.282968
14382  1 44.257336 55.678584  7.138280
14383  1 44.257336 55.678584  9.993592
14384  1 44.257336 55.678584 12.848904
14385  1 44.257336 55.678584 15.704216
14386  1 44.257336 55.678584 18.559528
14387  1 44.257336 55.678584 21.414840
14388  1 44.257336 55.678584 24.270152
14389  1 44.257336 55.678584 27.125464
14390  1 44.257336 55.678584 29.980776
14391  1 44.257336 55.678584 32.836088
14392  1 44.257336 55.678584 35.691400
14393  1 44.257336 55.678584 38.546712
14394  1 44.257336 55.678584 41.402024
14395  1 44.257336 55.678584 44.257336
14396  1 44.257336 55.678584 47.112648
14397  1 44.257336 55.678584 49.967960
14398  1 44.257336 55.678584 52.823272
14399  1 44.257336 55.678584 55.678584
14400  1 47.112648  1.427656  1.427656
14401  1 47.112648  1.427656  4.282968
14402  1 47.112648  1.427656  7.138280
14403  1 47.112648  1.427656  9.993592
14404  1 47.112648  1.427656 12.848904
14405  1 47.112648  1.427656 15.704216
14406  1 47.112648  1.427656 18.559528
14407  1 47.112648  1.427656 21.414840
14408  1 47.112648  1.427656 24.270152
14409  1 47.112648  1.427656 27.125464
14410  1 47.112648  1.427656 29.980776
14411  1 47.112648  1.427656 32.836088
14412  1 47.112648  1.427656 35.691400
14413  1 47.112648  1.427656 38.546712
14414  1 47.112648  1.427656 41.402024
14415  1 47.112648  1.427656 44.257336
14416  1 47.112648  1.427656 47.112648
14417  1 47.112648  1.427656 49.967960
14418  1 47.112648  1.427656 52.823272
14419  1 47.112648  1.427656 55.678584
14420  1 47.112648  4.282968  1.427656
14421  1 47.112648  4.282968  4.282968
14422  1 47.112648  4.282968  7.138280
14423  1 47.112648  4.282968  9.993592
14424  1 47.112648  4.282968 12.848904
14425  1 47.112648  4.282968 15.704216
14426  1 47.112648  4.282968 18.559528
14427  1 47.112648  4.282968 21.414840
14428  1 47.112648  4.282968 24.270152
14429  1 47.112648  4.282968 27.125464
14430  1 47.112648  4.282968 29.980776
14431  1 47.112648  4.282968 32.836088
14432  1 47.112648  4.282968 35.691400
14433  1 47.112648  4.282968 38.546712
14434  1 47.112648  4.282968 41.402024
14435  1 47.112648  4.282968 44.257336
14436  1 47.112648  4.282968 47.112648
14437  1 47.112648  4.282968 49.967960
14438  1 47.112648  4.282968 52.823272
14439  1 47.112648  4.282968 55.678584
14440  1 47.112648  7.138280  1.427656
14441  1 47.112648  7.138280  4.282968
14442  1 47.112648  7.138280  7.138280
14443  1 47.112648  7.138280  9.993592
14444  1 47.112648  7.138280 12.848904
14445  1 47.112648  7.138280 15.704216
14446  1 47.112648  7.138280 18.559528
14447  1 47.112648  7.138280 21.414840
14448  1 47.112648  7.138280 24.270152
14449  1 47.112648  7.138280 27.125464
14450  1 47.112648  7.138280 29.980776
14451  1 47.112648  7.138280 32.836088
14452  1 47.112648  7.138280 35.691400
14453  1 47.112648  7.138280 38.546712
14454  1 47.112648  7.138280 41.402024
14455  1 47.112648  7.138280 44.257336
14456  1 47.112648  7.138280 47.112648
14457  1 47.112648  7.138280 49.967960
14458  1 47.112648  7.138280 52.823272
14459  1 47.112648  7.138280 55.678584
14460  1 47.112648  9.993592  1.427656
14461  1 47.112648  9.993592  4.282968
14462  1 47.112648  9.993592  7.138280
14463  1 47.112648  9.993592  9.993592
14464  1 47.112648  9.993592 12.848904
14465  1 47.112648  9.993592 15.704216
14466  1 47.112648  9.993592 18.559528
14467  1 47.112648  9.993592 21.414840
14468  1 47.112648  9.993592 24.270152
14469  1 47.112648  9.993592 27.125464
14470  1 47.112648  9.993592 29.980776
14471  1 47.112648  9.993592 32.836088
14472  1 47.112648  9.993592 35.691400
14473  1 47.112648  9.993592 38.546712
14474  1 47.112648  9.993592 41.402024
14475  1 47.112648  9.993592 44.257336
14476  1 47.112648  9.993592 47.112648
14477  1 47.112648  9.993592 49.967960
14478  1 47.112648  9.993592 52.823272
14479  1 47.112648  9.993592 55.678584
14480  1 47.112648 12.848904  1.427656
14481  1 47.112648 12.848904  4.282968
14482  1 47.112648 12.848904  7.138280
14483  1 47.112648 12.848904  9.993592
14484  1 47.112648 12.848904 12.848904
14485  1 47.112648 12.848904 15.704216
14486  1 47.112648 12.848904 18.559528
14487  1 47.112648 12.848904 21.414840
14488  1 47.112648 12.848904 24.270152
14489  1 47.112648 12.848904 27.125464
14490  1 47.112648 12.848904 29.980776
14491  1 47.112648 12.848904 32.836088
14492  1 47.112648 12.848904 35.691400
14493  1 47.112648 12.848904 38.546712
14494  1 47.112648 12.848904 41.402024
14495  1 47.112648 12.848904 44.257336
14496  1 47.112648 12.848904 47.112648
14497  1 47.112648 12.848904 49.967960
14498  1 47.112648 12.848904 52.823272
14499  1 47.112648 12.848904 55.678584
14500  1 47.112648 15.704216  1.427656
14501  1 47.112648 15.704216  4.282968
14502  1 47.112648 15.704216  7.138280
14503  1 47.112648 15.704216  9.993592
14504  1 47.112648 15.704216 12.848904
14505  1 47.112648 15.704216 15.704216
14506  1 47.112648 15.704216 18.559528
14507  1 47.112648 15.704216 21.414840
14508  1 47.112648 15.704216 24.270152
14509  1 47.112648 15.704216 27.125464
14510  1 47.112648 15.704216 29.980776
14511  1 47.112648 15.704216 32.836088
14512  1 47.112648 15.704216 35.691400
14513  1 47.112648 15.704216 38.546712
14514  1 47.112648 15.704216 41.402024
14515  1 47.112648 15.704216 44.257336
14516  1 47.112648 15.704216 47.112648
14517  1 47.112648 15.704216 49.967960
14518  1 47.112648 15.704216 52.823272
14519  1 47.112648 15.704216 55.678584
14520  1 47.112648 18.559528  1.427656
14521  1 47.112648 18.559528  4.282968
14522  1 47.112648 18.559528  7.138280
14523  1 47.112648 18.559528  9.993592
14524  1 47.112648 18.559528 12.848904
14525  1 47.112648 18.559528 15.704216
14526  1 47.112648 18.559528 18.559528
14527  1 47.112648 18.559528 21.414840
14528  1 47.112648 18.559528 24.270152
14529  1 47.112648 18.559528 27.125464
14530  1 47.112648 18.559528 29.980776
14531  1 47.112648 18.559528 32.836088
14532  1 47.112648 18.559528 35.691400
14533  1 47.112648 18.559528 38.546712
14534  1 47.112648 18.559528 41.402024
14535  1 47.112648 18.559528 44.257336
14536  1 47.112648 18.559528 47.112648
14537  1 47.112648 18.559528 49.967960
14538  1 47.112648 18.559528 52.823272
14539  1 47.112648 18.559528 55.678584
14540  1 47.112648 21.414840  1.427656
14541  1 47.112648 21.414840  4.282968
14542  1 47.112648 21.414840  7.138280
14543  1 47.112648 21.414840  9.993592
14544  1 47.112648 21.414840 12.848904
14545  1 47.112648 21.414840 15.704216
14546  1 47.112648 21.414840 18.559528
14547  1 47.112648 21.414840 21.414840
14548  1 47.112648 21.414840 24.270152
14549  1 47.112648 21.414840 27.125464
14550  1 47.112648 21.414840 29.980776
14551  1 47.112648 21.414840 32.836088
14552  1 47.112648 21.414840 35.691400
14553  1 47.112648 21.414840 38.546712
14554  1 47.112648 21.414840 41.402024
14555  1 47.112648 21.414840 44.257336
14556  1 47.112648 21.414840 47.112648
14557  1 47.112648 21.414840 49.967960
14558  1 47.112648 21.414840 52.823272
14559  1 47.112648 21.414840 55.678584
14560  1 47.112648 24.270152  1.427656
14561  1 47.112648 24.270152  4.282968
14562  1 47.112648 24.270152  7.138280
14563  1 47.112648 24.270152  9.993592
14564  1 47.112648 24.270152 12.848904
14565  1 47.112648 24.270152 15.704216
14566  1 47.112648 24.270152 18.559528
14567  1 47.112648 24.270152 21.414840
14568  1 47.112648 24.270152 24.270152
14569  1 47.112648 24.270152 27.125464
14570  1 47.112648 24.270152 29.980776
14571  1 47.112648 24.270152 32.836088
14572  1 47.112648 24.270152 35.691400
14573  1 47.112648 24.270152 38.546712
14574  1 47.112648 24.270152 41.402024
14575  1 47.112648 24.270152 44.257336
14576  1 47.112648 24.270152 47.112648
14577  1 47.112648 24.270152 49.967960
14578  1 47.112648 24.270152 52.823272
14579  1 47.112648 24.270152 55.678584
14580  1 47.112648 27.125464  1.427656
14581  1 47.112648 27.125464  4.282968
14582  1 47.112648 27.125464  7.138280
14583  1 47.112648 27.125464  9.993592
14584  1 47.112648 27.125464 12.848904
14585  1 47.112648 27.125464 15.704216
14586  1 47.112648 27.125464 18.559528
14587  1 47.112648 27.125464 21.414840
14588  1 47.112648 27.125464 24.270152
14589  1 47.112648 27.125464 27.125464
14590  1 47.112648 27.125464 29.980776
14591  1 47.112648 27.125464 32.836088
14592  1 47.112648 27.125464 35.691400
14593  1 47.112648 27.125464 38.546712
14594  1 47.112648 27.125464 41.402024
14595  1 47.112648 27.125464 44.257336
14596  1 47.112648 27.125464 47.112648
14597  1 47.112648 27.125464 49.967960
14598  1 47.112648 27.125464 52.823272
14599  1 47.112648 27.125464 55.678584
14600  1 47.112648 29.980776  1.427656
14601  1 47.112648 29.980776  4.282968
14602  1 47.112648 29.980776  7.138280
14603  1 47.112648 29.980776  9.993592
14604  1 47.112648 29.980776 12.848904
14605  1 47.112648 29.980776 15.704216
14606  1 47.112648 29.980776 18.559528
14607  1 47.112648 29.980776 21.414840
14608  1 47.112648 29.980776 24.270152
14609  1 47.112648 29.980776 27.125464
14610  1 47.112648 29.980776 29.980776
14611  1 47.112648 29.980776 32.836088
14612  1 47.112648 29.980776 35.691400
14613  1 47.112648 29.980776 38.546712
14614  1 47.112648 29.980776 41.402024
14615  1 47.112648 29.980776 44.257336
14616  1 47.112648 29.980776 47.112648
14617  1 47.112648 29.980776 49.967960
14618  1 47.112648 29.980776 52.823272
14619  1 47.112648 29.980776 55.678584
14620  1 47.112648 32.836088  1.427656
14621  1 47.112648 32.836088  4.282968
14622  1 47.112648 32.836088  7.138280
14623  1 47.112648 32.836088  9.993592
14624  1 47.112648 32.836088 12.848904
14625  1 47.112648 32.836088 15.704216
14626  1 47.112648 32.836088 18.559528
14627  1 47.112648 32.836088 21.414840
14628  1 47.112648 32.836088 24.270152
14629  1 47.112648 32.836088 27.125464
14630  1 47.112648 32.836088 29.980776
14631  1 47.112648 32.836088 32.836088
14632  1 47.112648 32.836088 35.691400
14633  1 47.112648 32.836088 38.546712
14634  1 47.112648 32.836088 41.402024
14635  1 47.112648 32.836088 44.257336
14636  1 47.112648 32.836088 47.112648
14637  1 47.112648 32.836088 49.967960
14638  1 47.112648 32.836088 52.823272
14639  1 47.112648 32.836088 55.678584
14640  1 47.112648 35.691400  1.427656
14641  1 47.112648 35.691400  4.282968
14642  1 47.112648 35.691400  7.138280
14643  1 47.112648 35.691400  9.993592
14644  1 47.112648 35.691400 12.848904
14645  1 47.112648 35.691400 15.704216
14646  1 47.112648 35.691400 18.559528
14647  1 47.112648 35.691400 21.414840
14648  1 47.112648 35.691400 24.270152
14649  1 47.112648 35.691400 27.125464
14650  1 47.112648 35.691400 29.980776
14651  1 47.112648 35.691400 32.836088
14652  1 47.112648 35.691400 35.691400
14653  1 47.112648 35.691400 38.546712
14654  1 47.112648 35.691400 41.402024
14655  1 47.112648 35.691400 44.257336
14656  1 47.112648 35.691400 47.112648
14657  1 47.112648 35.691400 49.967960
14658  1 47.112648 35.691400 52.823272
14659  1 47.112648 35.691400 55.678584
14660  1 47.112648 38.546712  1.427656
14661  1 47.112648 38.546712  4.282968
14662  1 47.112648 38.546712  7.138280
14663  1 47.112648 38.546712  9.993592
14664  1 47.112648 38.546712 12.848904
14665  1 47.112648 38.546712 15.704216
14666  1 47.112648 38.546712 18.559528
14667  1 47.112648 38.546712 21.414840
14668  1 47.112648 38.546712 24.270152
14669  1 47.112648 38.546712 27.125464
14670  1 47.112648 38.546712 29.980776
14671  1 47.112648 38.546712 32.836088
14672  1 47.112648 38.546712 35.691400
14673  1 47.112648 38.546712 38.546712
14674  1 47.112648 38.546712 41.402024
14675  1 47.112648 38.546712 44.257336
14676  1 47.112648 38.546712 47.112648
14677  1 47.112648 38.546712 49.967960
14678  1 47.112648 38.546712 52.823272
14679  1 47.112648 38.546712 55.678584
14680  1 47.112648 41.402024  1.427656
14681  1 47.112648 41.402024  4.282968
14682  1 47.112648 41.402024  7.138280
14683  1 47.112648 41.402024  9.993592
14684  1 47.112648 41.402024 12.848904
14685  1 47.112648 41.402024 15.704216
14686  1 47.112648 41.402024 18.559528
14687  1 47.112648 41.402024 21.414840
14688  1 47.112648 41.402024 24.270152
14689  1 47.112648 41.402024 27.125464
14690  1 47.112648 41.402024 29.980776
14691  1 47.112648 41.402024 32.836088
14692  1 47.112648 41.402024 35.691400
14693  1 47.112648 41.402024 38.546712
14694  1 47.112648 41.402024 41.402024
14695  1 47.112648 41.402024 44.257336
14696  1 47.112648 41.402024 47.112648
14697  1 47.112648 41.402024 49.967960
14698  1 47.112648 41.402024 52.823272
14699  1 47.112648 41.402024 55.678584
14700  1 47.112648 44.257336  1.427656
14701  1 47.112648 44.257336  4.282968
14702  1 47.112648 44.257336  7.138280
14703  1 47.112648 44.257336  9.993592
14704  1 47.112648 44.257336 12.848904
14705  1 47.112648 44.257336 15.704216
14706  1 47.112648 44.257336 18.559528
14707  1 47.112648 44.257336 21.414840
14708  1 47.112648 44.257336 24.270152
14709  1 47.112648 44.257336 27.125464
14710  1 47.112648 44.257336 29.980776
14711  1 47.112648 44.257336 32.836088
14712  1 47.112648 44.257336 35.691400
14713  1 47.112648 44.257336 38.546712
14714  1 47.112648 44.257336 41.402024
14715  1 47.112648 44.257336 44.257336
14716  1 47.112648 44.257336 47.112648
14717  1 47.112648 44.257336 49.967960
14718  1 47.112648 44.257336 52.823272
14719  1 47.112648 44.257336 55.678584
14720  1 47.112648 47.112648  1.427656
14721  1 47.112648 47.112648  4.282968
14722  1 47.112648 47.112648  7.138280
14723  1 47.112648 47.112648  9.993592
14724  1 47.112648 47.112648 12.848904
14725  1 47.112648 47.112648 15.704216
14726  1 47.112648 47.112648 18.559528
14727  1 47.112648 47.112648 21.414840
14728  1 47.112648 47.112648 24.270152
14729  1 47.112648 47.112648 27.125464
14730  1 47.112648 47.112648 29.980776
14731  1 47.112648 47.112648 32.836088
14732  1 47.112648 47.112648 35.691400
14733  1 47.112648 47.112648 38.546712
14734  1 47.112648 47.112648 41.402024
14735  1 47.112648 47.112648 44.257336
14736  1 47.112648 47.112648 47.112648
14737  1 47.112648 47.112648 49.967960
14738  1 47.112648 47.112648 52.823272
14739  1 47.112648 47.112648 55.678584
14740  1 47.112648 49.967960  1.427656
14741  1 47.112648 49.967960  4.282968
14742  1 47.112648 49.967960  7.138280
14743  1 47.112648 49.967960  9.993592
14744  1 47.112648 49.967960 12.848904
14745  1 47.112648 49.967960 15.704216
14746  1 47.112648 49.967960 18.559528
14747  1 47.112648 49.967960 21.414840
14748  1 47.112648 49.967960 24.270152
14749  1 47.112648 49.967960 27.125464
14750  1 47.112648 49.967960 29.980776
14751  1 47.112648 49.967960 32.836088
14752  1 47.112648 49.967960 35.691400
14753  1 47.112648 49.967960 38.546712
14754  1 47.112648 49.967960 41.402024
14755  1 47.112648 49.967960 44.257336
14756  1 47.112648 49.967960 47.112648
14757  1 47.112648 49.967960 49.967960
14758  1 47.112648 49.967960 52.823272
14759  1 47.112648 49.967960 55.678584
14760  1 47.112648 52.823272  1.427656
14761  1 47.112648 52.823272  4.282968
14762  1 47.112648 52.823272  7.138280
14763  1 47.112648 52.823272  9.993592
14764  1 47.112648 52.823272 12.848904
14765  1 47.112648 52.823272 15.704216
14766  1 47.112648 52.823272 18.559528
14767  1 47.112648 52.823272 21.414840
14768  1 47.112648 52.823272 24.270152
14769  1 47.112648 52.823272 27.125464
14770  1 47.112648 52.823272 29.980776
14771  1 47.112648 52.823272 32.836088
14772  1 47.112648 52.823272 35.691400
14773  1 47.112648 52.823272 38.546712
14774  1 47.112648 52.823272 41.402024
14775  1 47.112648 52.823272 44.257336
14776  1 47.112648 52.823272 47.112648
14777  1 47.112648 52.823272 49.967960
14778  1 47.112648 52.823272 52.823272
14779  1 47.112648 52.823272 55.678584
14780  1 47.112648 55.678584  1.427656
14781  1 47.112648 55.678584  4.282968
14782  1 47.112648 55.678584  7.138280
14783  1 47.112648 55.678584  9.993592
14784  1 47.112648 55.678584 12.848904
14785  1 47.112648 55.678584 15.704216
14786  1 47.112648 55.678584 18.559528
14787  1 47.112648 55.678584 21.414840
14788  1 47.112648 55.678584 24.270152
14789  1 47.112648 55.678584 27.125464
14790  1 47.112648 55.678584 29.980776
14791  1 47.112648 55.678584 32.836088
14792  1 47.112648 55.678584 35.691400
14793  1 47.112648 55.678584 38.546712
14794  1 47.112648 55.678584 41.402024
14795  1 47.112648 55.678584 44.257336
14796  1 47.112648 55.678584 47.112648
14797  1 47.112648 55.678584 49.967960
14798  1 47.112648 55.678584 52.823272
14799  1 47.112648 55.678584 55.678584
14800  1 49.967960  1.427656  1.427656
14801  1 49.967960  1.427656  4.282968
14802  1 49.967960  1.427656  7.138280
14803  1 49.967960  1.427656  9.993592
14804  1 49.967960  1.427656 12.848904
14805  1 49.967960  1.427656 15.704216
14806  1 49.967960  1.427656 18.559528
14807  1 49.967960  1.427656 21.414840
14808  1 49.967960  1.427656 24.270152
14809  1 49.967960  1.427656 27.125464
14810  1 49.967960  1.427656 29.980776
14811  1 49.967960  1.427656 32.836088
14812  1 49.967960  1.427656 35.691400
14813  1 49.967960  1.427656 38.546712
14814  1 49.967960  1.427656 41.402024
14815  1 49.967960  1.427656 44.257336
14816  1 49.967960  1.427656 47.112648
14817  1 49.967960  1.427656 49.967960
14818  1 49.967960  1.427656 52.823272
14819  1 49.967960  1.427656 55.678584
14820  1 49.967960  4.282968  1.427656
14821  1 49.967960  4.282968  4.282968
14822  1 49.967960  4.282968  7.138280
14823  1 49.967960  4.282968  9.993592
14824  1 49.967960  4.282968 12.848904
14825  1 49.967960  4.282968 15.704216
14826  1 49.967960  4.282968 18.559528
14827  1 49.967960  4.282968 21.414840
14828  1 49.967960  4.282968 24.270152
14829  1 49.967960  4.282968 27.125464
14830  1 49.967960  4.282968 29.980776
14831  1 49.967960  4.282968 32.836088
14832  1 49.967960  4.282968 35.691400
14833  1 49.967960  4.282968 38.546712
14834  1 49.967960  4.282968 41.402024
14835  1 49.967960  4.282968 44.257336
14836  1 49.967960  4.282968 47.112648
14837  1 49.967960  4.282968 49.967960
14838  1 49.967960  4.282968 52.823272
14839  1 49.967960  4.282968 55.678584
14840  1 49.967960  7.138280  1.427656
14841  1 49.967960  7.138280  4.282968
14842  1 49.967960  7.138280  7.138280
14843  1 49.967960  7.138280  9.993592
14844  1 49.967960  7.138280 12.848904
14845  1 49.967960  7.138280 15.704216
14846  1 49.967960  7.138280 18.559528
14847  1 49.967960  7.138280 21.414840
14848  1 49.967960  7.138280 24.270152
14849  1 49.967960  7.138280 27.125464
14850  1 49.967960  7.138280 29.980776
14851  1 49.967960  7.138280 32.836088
14852  1 49.967960  7.138280 35.691400
14853  1 49.967960  7.138280 38.546712
14854  1 49.967960  7.138280 41.402024
14855  1 49.967960  7.138280 44.257336
14856  1 49.967960  7.138280 47.112648
14857  1 49.967960  7.138280 49.967960
14858  1 49.967960  7.138280 52.823272
14859  1 49.967960  7.138280 55.678584
14860  1 49.967960  9.993592  1.427656
14861  1 49.967960  9.993592  4.282968
14862  1 49.967960  9.993592  7.138280
14863  1 49.967960  9.993592  9.993592
14864  1 49.967960  9.993592 12.848904
14865  1 49.967960  9.993592 15.704216
14866  1 49.967960  9.993592 18.559528
14867  1 49.967960  9.993592 21.414840
14868  1 49.967960  9.993592 24.270152
14869  1 49.967960  9.993592 27.125464
14870  1 49.967960  9.993592 29.980776
14871  1 49.967960  9.993592 32.836088
14872  1 49.967960  9.993592 35.691400
14873  1 49.967960  9.993592 38.546712
14874  1 49.967960  9.993592 41.402024
14875  1 49.967960  9.993592 44.257336
14876  1 49.967960  9.993592 47.112648
14877  1 49.967960  9.993592 49.967960
14878  1 49.967960  9.993592 52.823272
14879  1 49.967960  9.993592 55.678584
14880  1 49.967960 12.848904  1.427656
14881  1 49.967960 12.848904  4.282968
14882  1 49.967960 12.848904  7.138280
14883  1 49.967960 12.848904  9.993592
14884  1 49.967960 12.848904 12.848904
14885  1 49.967960 12.848904 15.704216
14886  1 49.967960 12.848904 18.559528
14887  1 49.967960 12.848904 21.414840
14888  1 49.967960 12.848904 24.270152
14889  1 49.967960 12.848904 27.125464
14890  1 49.967960 12.848904 29.980776
14891  1 49.967960 12.848904 32.836088
14892  1 49.967960 12.848904 35.691400
14893  1 49.967960 12.848904 38.546712
14894  1 49.967960 12.848904 41.402024
14895  1 49.967960 12.848904 44.257336
14896  1 49.967960 12.848904 47.112648
14897  1 49.967960 12.848904 49.967960
14898  1 49.967960 12.848904 52.823272
14899  1 49.967960 12.848904 55.678584
14900  1 49.967960 15.704216  1.427656
14901  1 49.967960 15.704216  4.282968
14902  1 49.967960 15.704216  7.138280
14903  1 49.967960 15.704216  9.993592
14904  1 49.967960 15.704216 12.848904
14905  1 49.967960 15.704216 15.704216
14906  1 49.967960 15.704216 18.559528
14907  1 49.967960 15.704216 21.414840
14908  1 49.967960 15.704216 24.270152
14909  1 49.967960 15.704216 27.125464
14910  1 49.967960 15.704216 29.980776
14911  1 49.967960 15.704216 32.836088
14912  1 49.967960 15.704216 35.691400
14913  1 49.967960 15.704216 38.546712
14914  1 49.967960 15.704216 41.402024
14915  1 49.967960 15.704216 44.257336
14916  1 49.967960 15.704216 47.112648
14917  1 49.967960 15.704216 49.967960
14918  1 49.967960 15.704216 52.823272
14919  1 49.967960 15.704216 55.678584
14920  1 49.967960 18.559528  1.427656
14921  1 49.967960 18.559528  4.282968
14922  1 49.967960 18.559528  7.138280
14923  1 49.967960 18.559528  9.993592
14924  1 49.967960 18.559528 12.848904
14925  1 49.967960 18.559528 15.704216
14926  1 49.967960 18.559528 18.559528
14927  1 49.967960 18.559528 21.414840
14928  1 49.967960 18.559528 24.270152
14929  1 49.967960 18.559528 27.125464
14930  1 49.967960 18.559528 29.980776
14931  1 49.967960 18.559528 32.836088
14932  1 49.967960 18.559528 35.691400
14933  1 49.967960 18.559528 38.546712
14934  1 49.967960 18.559528 41.402024
14935  1 49.967960 18.559528 44.257336
14936  1 49.967960 18.559528 47.112648
14937  1 49.967960 18.559528 49.967960
14938  1 49.967960 18.559528 52.823272
14939  1 49.967960 18.559528 55.678584
14940  1 49.967960 21.414840  1.427656
14941  1 49.967960 21.414840  4.282968
14942  1 49.967960 21.414840  7.138280
14943  1 49.967960 21.414840  9.993592
14944  1 49.967960 21.414840 12.848904
14945  1 49.967960 21.414840 15.704216
14946  1 49.967960 21.414840 18.559528
14947  1 49.967960 21.414840 21.414840
14948  1 49.967960 21.414840 24.270152
14949  1 49.967960 21.414840 27.125464
14950  1 49.967960 21.414840 29.980776
14951  1 49.967960 21.414840 32.836088
14952  1 49.967960 21.414840 35.691400
14953  1 49.967960 21.414840 38.546712
14954  1 49.967960 21.414840 41.402024
14955  1 49.967960 21.414840 44.257336
14956  1 49.967960 21.414840 47.112648
14957  1 49.967960 21.414840 49.967960
14958  1 49.967960 21.414840 52.823272
14959  1 49.967960 21.414840 55.678584
14960  1 49.967960 24.270152  1.427656
14961  1 49.967960 24.270152  4.282968
14962  1 49.967960 24.270152  7.138280
14963  1 49.967960 24.270152  9.993592
14964  1 49.967960 24.270152 12.848904
14965  1 49.967960 24.270152 15.704216
14966  1 49.967960 24.270152 18.559528
14967  1 49.967960 24.270152 21.414840
14968  1 49.967960 24.270152 24.270152
14969  1 49.967960 24.270152 27.125464
14970  1 49.967960 24.270152 29.980776
14971  1 49.967960 24.270152 32.836088
14972  1 49.967960 24.270152 35.691400
14973  1 49.967960 24.270152 38.546712
14974  1 49.967960 24.270152 41.402024
14975  1 49.967960 24.270152 44.257336
14976  1 49.967960 24.270152 47.112648
14977  1 49.967960 24.270152 49.967960
14978  1 49.967960 24.270152 52.823272
14979  1 49.967960 24.270152 55.678584
14980  1 49.967960 27.125464  1.427656
14981  1 49.967960 27.125464  4.282968
14982  1 49.967960 27.125464  7.138280
14983  1 49.967960 27.125464  9.993592
14984  1 49.967960 27.125464 12.848904
14985  1 49.967960 27.125464 15.704216
14986  1 49.967960 27.125464 18.559528
14987  1 49.967960 27.125464 21.414840
14988  1 49.967960 27.125464 24.270152
14989  1 49.967960 27.125464 27.125464
14990  1 49.967960 27.125464 29.980776
14991  1 49.967960 27.125464 32.836088
14992  1 49.967960 27.125464 35.691400
14993  1 49.967960 27.125464 38.546712
14994  1 49.967960 27.125464 41.402024
14995  1 49.967960 27.125464 44.257336
14996  1 49.967960 27.125464 47.112648
14997  1 49.967960 27.125464 49.967960
14998  1 49.967960 27.125464 52.823272
14999  1 49.967960 27.125464 55.678584
15000  1 49.967960 29.980776  1.427656
15001  1 49.967960 29.980776  4.282968
15002  1 49.967960 29.980776  7.138280
15003  1 49.967960 29.980776  9.993592
15004  1 49.967960 29.980776 12.848904
15005  1 49.967960 29.980776 15.704216
15006  1 49.967960 29.980776 18.559528
15007  1 49.967960 29.980776 21.414840
15008  1 49.967960 29.980776 24.270152
15009  1 49.967960 29.980776 27.125464
15010  1 49.967960 29.980776 29.980776
15011  1 49.967960 29.980776 32.836088
15012  1 49.967960 29.980776 35.691400
15013  1 49.967960 29.980776 38.546712
15014  1 49.967960 29.980776 41.402024
15015  1 49.967960 29.980776 44.257336
15016  1 49.967960 29.980776 47.112648
15017  1 49.967960 29.980776 49.967960
15018  1 49.967960 29.980776 52.823272
15019  1 49.967960 29.980776 55.678584
15020  1 49.967960 32.836088  1.427656
15021  1 49.967960 32.836088  4.282968
15022  1 49.967960 32.836088  7.138280
15023  1 49.967960 32.836088  9.993592
15024  1 49.967960 32.836088 12.848904
15025  1 49.967960 32.836088 15.704216
15026  1 49.967960 32.836088 18.559528
15027  1 49.967960 32.836088 21.414840
15028  1 49.967960 32.836088 24.270152
15029  1 49.967960 32.836088 27.125464
15030  1 49.967960 32.836088 29.980776
15031  1 49.967960 32.836088 32.836088
15032  1 49.967960 32.836088 35.691400
15033  1 49.967960 32.836088 38.546712
15034  1 49.967960 32.836088 41.402024
15035  1 49.967960 32.836088 44.257336
15036  1 49.967960 32.836088 47.112648
15037  1 49.967960 32.836088 49.967960
15038  1 49.967960 32.836088 52.823272
15039  1 49.967960 32.836088 55.678584
15040  1 49.967960 35.691400  1.427656
15041  1 49.967960 35.691400  4.282968
15042  1 49.967960 35.691400  7.138280
15043  1 49.967960 35.691400  9.993592
15044  1 49.967960 35.691400 12.848904
15045  1 49.967960 35.691400 15.704216
15046  1 49.967960 35.691400 18.559528
15047  1 49.967960 35.691400 21.414840
15048  1 49.967960 35.691400 24.270152
15049  1 49.967960 35.691400 27.125464
15050  1 49.967960 35.691400 29.980776
15051  1 49.967960 35.691400 32.836088
15052  1 49.967960 35.691400 35.691400
15053  1 49.967960 35.691400 38.546712
15054  1 49.967960 35.691400 41.402024
15055  1 49.967960 35.691400 44.257336
15056  1 49.967960 35.691400 47.112648
15057  1 49.967960 35.691400 49.967960
15058  1 49.967960 35.691400 52.823272
15059  1 49.967960 35.691400 55.678584
15060  1 49.967960 38.546712  1.427656
15061  1 49.967960 38.546712  4.282968
15062  1 49.967960 38.546712  7.138280
15063  1 49.967960 38.546712  9.993592
15064  1 49.967960 38.546712 12.848904
15065  1 49.967960 38.546712 15.704216
15066  1 49.967960 38.546712 18.559528
15067  1 49.967960 38.546712 21.414840
15068  1 49.967960 38.546712 24.270152
15069  1 49.967960 38.546712 27.125464
15070  1 49.967960 38.546712 29.980776
15071  1 49.967960 38.546712 32.836088
15072  1 49.967960 38.546712 35.691400
15073  1 49.967960 38.546712 38.546712
15074  1 49.967960 38.546712 41.402024
15075  1 49.967960 38.546712 44.257336
15076  1 49.967960 38.546712 47.112648
15077  1 49.967960 38.546712 49.967960
15078  1 49.967960 38.546712 52.823272
15079  1 49.967960 38.546712 55.678584
15080  1 49.967960 41.402024  1.427656
15081  1 49.967960 41.402024  4.282968
15082  1 49.967960 41.402024  7.138280
15083  1 49.967960 41.402024  9.993592
15084  1 49.967960 41.402024 12.848904
15085  1 49.967960 41.402024 15.704216
15086  1 49.967960 41.402024 18.559528
15087  1 49.967960 41.402024 21.414840
15088  1 49.967960 41.402024 24.270152
15089  1 49.967960 41.402024 27.125464
15090  1 49.967960 41.402024 29.980776
15091  1 49.967960 41.402024 32.836088
15092  1 49.967960 41.402024 35.691400
15093  1 49.967960 41.402024 38.546712
15094  1 49.967960 41.402024 41.402024
15095  1 49.967960 41.402024 44.257336
15096  1 49.967960 41.402024 47.112648
15097  1 49.967960 41.402024 49.967960
15098  1 49.967960 41.402024 52.823272
15099  1 49.967960 41.402024 55.678584
15100  1 49.967960 44.257336  1.427656
15101  1 49.967960 44.257336  4.282968
15102  1 49.967960 44.257336  7.138280
15103  1 49.967960 44.257336  9.993592
15104  1 49.967960 44.257336 12.848904
15105  1 49.967960 44.257336 15.704216
15106  1 49.967960 44.257336 18.559528
15107  1 49.967960 44.257336 21.414840
15108  1 49.967960 44.257336 24.270152
15109  1 49.967960 44.257336 27.125464
15110  1 49.967960 44.257336 29.980776
15111  1 49.967960 44.257336 32.836088
15112  1 49.967960 44.257336 35.691400
15113  1 49.967960 44.257336 38.546712
15114  1 49.967960 44.257336 41.402024
15115  1 49.967960 44.257336 44.257336
15116  1 49.967960 44.257336 47.112648
15117  1 49.967960 44.257336 49.967960
15118  1 49.967960 44.257336 52.823272
15119  1 49.967960 44.257336 55.678584
15120  1 49.967960 47.112648  1.427656
15121  1 49.967960 47.112648  4.282968
15122  1 49.967960 47.112648  7.138280
15123  1 49.967960 47.112648  9.993592
15124  1 49.967960 47.112648 12.848904
15125  1 49.967960 47.112648 15.704216
15126  1 49.967960 47.112648 18.559528
15127  1 49.967960 47.112648 21.414840
15128  1 49.967960 47.112648 24.270152
15129  1 49.967960 47.112648 27.125464
15130  1 49.967960 47.112648 29.980776
15131  1 49.967960 47.112648 32.836088
15132  1 49.967960 47.112648 35.691400
15133  1 49.967960 47.112648 38.546712
15134  1 49.967960 47.112648 41.402024
15135  1 49.967960 47.112648 44.257336
15136  1 49.967960 47.112648 47.112648
15137  1 49.967960 47.112648 49.967960
15138  1 49.967960 47.112648 52.823272
15139  1 49.967960 47.112648 55.678584
15140  1 49.967960 49.967960  1.427656
15141  1 49.967960 49.967960  4.282968
15142  1 49.967960 49.967960  7.138280
15143  1 49.967960 49.967960  9.993592
15144  1 49.967960 49.967960 12.848904
15145  1 49.967960 49.967960 15.704216
15146  1 49.967960 49.967960 18.559528
15147  1 49.967960 49.967960 21.414840
15148  1 49.967960 49.967960 24.270152
15149  1 49.967960 49.967960 27.125464
15150  1 49.967960 49.967960 29.980776
15151  1 49.967960 49.967960 32.836088
15152  1 49.967960 49.967960 35.691400
15153  1 49.967960 49.967960 38.546712
15154  1 49.967960 49.967960 41.402024
15155  1 49.967960 49.967960 44.257336
15156  1 49.967960 49.967960 47.112648
15157  1 49.967960 49.967960 49.967960
15158  1 49.967960 49.967960 52.823272
15159  1 49.967960 49.967960 55.678584
15160  1 49.967960 52.823272  1.427656
15161  1 49.967960 52.823272  4.282968
15162  1 49.967960 52.823272  7.138280
15163  1 49.967960 52.823272  9.993592
15164  1 49.967960 52.823272 12.848904
15165  1 49.967960 52.823272 15.704216
15166  1 49.967960 52.823272 18.559528
15167  1 49.967960 52.823272 21.414840
15168  1 49.967960 52.823272 24.270152
15169  1 49.967960 52.823272 27.125464
15170  1 49.967960 52.823272 29.980776
15171  1 49.967960 52.823272 32.836088
15172  1 49.967960 52.823272 35.691400
15173  1 49.967960 52.823272 38.546712
15174  1 49.967960 52.823272 41.402024
15175  1 49.967960 52.823272 44.257336
15176  1 49.967960 52.823272 47.112648
15177  1 49.967960 52.823272 49.967960
15178  1 49.967960 52.823272 52.823272
15179  1 49.967960 52.823272 55.678584
15180  1 49.967960 55.678584  1.427656
15181  1 49.967960 55.678584  4.282968
15182  1 49.967960 55.678584  7.138280
15183  1 49.967960 55.678584  9.993592
15184  1 49.967960 55.678584 12.848904
15185  1 49.967960 55.678584 15.704216
15186  1 49.967960 55.678584 18.559528
15187  1 49.967960 55.678584 21.414840
15188  1 49.967960 55.678584 24.270152
15189  1 49.967960 55.678584 27.125464
15190  1 49.967960 55.678584 29.980776
15191  1 49.967960 55.678584 32.836088
15192  1 49.967960 55.678584 35.691400
15193  1 49.967960 55.678584 38.546712
15194  1 49.967960 55.678584 41.402024
15195  1 49.967960 55.678584 44.257336
15196  1 49.967960 55.678584 47.112648
15197  1 49.967960 55.678584 49.967960
15198  1 49.967960 55.678584 52.823272
15199  1 49.967960 55.678584 55.678584
15200  1 52.823272  1.427656  1.427656
15201  1 52.823272  1.427656  4.282968
15202  1 52.823272  1.427656  7.138280
15203  1 52.823272  1.427656  9.993592
15204  1 52.823272  1.427656 12.848904
15205  1 52.823272  1.427656 15.704216
15206  1 52.823272  1.427656 18.559528
15207  1 52.823272  1.427656 21.414840
15208  1 52.823272  1.427656 24.270152
15209  1 52.823272  1.427656 27.125464
15210  1 52.823272  1.427656 29.980776
15211  1 52.823272  1.427656 32.836088
15212  1 52.823272  1.427656 35.691400
15213  1 52.823272  1.427656 38.546712
15214  1 52.823272  1.427656 41.402024
15215  1 52.823272  1.427656 44.257336
15216  1 52.823272  1.427656 47.112648
15217  1 52.823272  1.427656 49.967960
15218  1 52.823272  1.427656 52.823272
15219  1 52.823272  1.427656 55.678584
15220  1 52.823272  4.282968  1.427656
15221  1 52.823272  4.282968  4.282968
15222  1 52.823272  4.282968  7.138280
15223  1 52.823272  4.282968  9.993592
15224  1 52.823272  4.282968 12.848904
15225  1 52.823272  4.282968 15.704216
15226  1 52.823272  4.282968 18.559528
15227  1 52.823272  4.282968 21.414840
15228  1 52.823272  4.282968 24.270152
15229  1 52.823272  4.282968 27.125464
15230  1 52.823272  4.282968 29.980776
15231  1 52.823272  4.282968 32.836088
15232  1 52.823272  4.282968 35.691400
15233  1 52.823272  4.282968 38.546712
15234  1 52.823272  4.282968 41.402024
15235  1 52.823272  4.282968 44.257336
15236  1 52.823272  4.282968 47.112648
15237  1 52.823272  4.282968 49.967960
15238  1 52.823272  4.282968 52.823272
15239  1 52.823272  4.282968 55.678584
15240  1 52.823272  7.138280  1.427656
15241  1 52.823272  7.138280  4.282968
15242  1 52.823272  7.138280  7.138280
15243  1 52.823272  7.138280  9.993592
15244  1 52.823272  7.138280 12.848904
15245  1 52.823272  7.138280 15.704216
15246  1 52.823272  7.138280 18.559528
15247  1 52.823272  7.138280 21.414840
15248  1 52.823272  7.138280 24.270152
15249  1 52.823272  7.138280 27.125464
15250  1 52.823272  7.138280 29.980776
15251  1 52.823272  7.138280 32.836088
15252  1 52.823272  7.138280 35.691400
15253  1 52.823272  7.138280 38.546712
15254  1 52.823272  7.138280 41.402024
15255  1 52.823272  7.138280 44.257336
15256  1 52.823272  7.138280 47.112648
15257  1 52.823272  7.138280 49.967960
15258  1 52.823272  7.138280 52.823272
15259  1 52.823272  7.138280 55.678584
15260  1 52.823272  9.993592  1.427656
15261  1 52.823272  9.993592  4.282968
15262  1 52.823272  9.993592  7.138280
15263  1 52.823272  9.993592  9.993592
15264  1 52.823272  9.993592 12.848904
15265  1 52.823272  9.993592 15.704216
15266  1 52.823272  9.993592 18.559528
15267  1 52.823272  9.993592 21.414840
15268  1 52.823272  9.993592 24.270152
15269  1 52.823272  9.993592 27.125464
15270  1 52.823272  9.993592 29.980776
15271  1 52.823272  9.993592 32.836088
15272  1 52.823272  9.993592 35.691400
15273  1 52.823272  9.993592 38.546712
15274  1 52.823272  9.993592 41.402024
15275  1 52.823272  9.993592 44.257336
15276  1 52.823272  9.993592 47.112648
15277  1 52.823272  9.993592 49.967960
15278  1 52.823272  9.993592 52.823272
15279  1 52.823272  9.993592 55.678584
15280  1 52.823272 12.848904  1.427656
15281  1 52.823272 12.848904  4.282968
15282  1 52.823272 12.848904  7.138280
15283  1 52.823272 12.848904  9.993592
15284  1 52.823272 12.848904 12.848904
15285  1 52.823272 12.848904 15.704216
15286  1 52.823272 12.848904 18.559528
15287  1 52.823272 12.848904 21.414840
15288  1 52.823272 12.848904 24.270152
15289  1 52.823272 12.848904 27.125464
15290  1 52.823272 12.848904 29.980776
15291  1 52.823272 12.848904 32.836088
15292  1 52.823272 12.848904 35.691400
15293  1 52.823272 12.848904 38.546712
15294  1 52.823272 12.848904 41.402024
15295  1 52.823272 12.848904 44.257336
15296  1 52.823272 12.848904 47.112648
15297  1 52.823272 12.848904 49.967960
15298  1 52.823272 12.848904 52.823272
15299  1 52.823272 12.848904 55.678584
15300  1 52.823272 15.704216  1.427656
15301  1 52.823272 15.704216  4.282968
15302  1 52.823272 15.704216  7.138280
15303  1 52.823272 15.704216  9.993592
15304  1 52.823272 15.704216 12.848904
15305  1 52.823272 15.704216 15.704216
15306  1 52.823272 15.704216 18.559528
15307  1 52.823272 15.704216 21.414840
15308  1 52.823272 15.704216 24.270152
15309  1 52.823272 15.704216 27.125464
15310  1 52.823272 15.704216 29.980776
15311  1 52.823272 15.704216 32.836088
15312  1 52.823272 15.704216 35.691400
15313  1 52.823272 15.704216 38.546712
15314  1 52.823272 15.704216 41.402024
15315  1 52.823272 15.704216 44.257336
15316  1 52.823272 15.704216 47.112648
15317  1 52.823272 15.704216 49.967960
15318  1 52.823272 15.704216 52.823272
15319  1 52.823272 15.704216 55.678584
15320  1 52.823272 18.559528  1.427656
15321  1 52.823272 18.559528  4.282968
15322  1 52.823272 18.559528  7.138280
15323  1 52.823272 18.559528  9.993592
15324  1 52.823272 18.559528 12.848904
15325  1 52.823272 18.559528 15.704216
15326  1 52.823272 18.559528 18.559528
15327  1 52.823272 18.559528 21.414840
15328  1 52.823272 18.559528 24.270152
15329  1 52.823272 18.559528 27.125464
15330  1 52.823272 18.559528 29.980776
15331  1 52.823272 18.559528 32.836088
15332  1 52.823272 18.559528 35.691400
15333  1 52.823272 18.559528 38.546712
15334  1 52.823272 18.559528 41.402024
15335  1 52.823272 18.559528 44.257336
15336  1 52.823272 18.559528 47.112648
15337  1 52.823272 18.559528 49.967960
15338  1 52.823272 18.559528 52.823272
15339  1 52.823272 18.559528 55.678584
15340  1 52.823272 21.414840  1.427656
15341  1 52.823272 21.414840  4.282968
15342  1 52.823272 21.414840  7.138280
15343  1 52.823272 21.414840  9.993592
15344  1 52.823272 21.414840 12.848904
15345  1 52.823272 21.414840 15.704216
15346  1 52.823272 21.414840 18.559528
15347  1 52.823272 21.414840 21.414840
15348  1 52.823272 21.414840 24.270152
15349  1 52.823272 21.414840 27.125464
15350  1 52.823272 21.414840 29.980776
15351  1 52.823272 21.414840 32.836088
15352  1 52.823272 21.414840 35.691400
15353  1 52.823272 21.414840 38.546712
15354  1 52.823272 21.414840 41.402024
15355  1 52.823272 21.414840 44.257336
15356  1 52.823272 21.414840 47.112648
15357  1 52.823272 21.414840 49.967960
15358  1 52.823272 21.414840 52.823272
15359  1 52.823272 21.414840 55.678584
15360  1 52.823272 24.270152  1.427656
15361  1 52.823272 24.270152  4.282968
15362  1 52.823272 24.270152  7.138280
15363  1 52.823272 24.270152  9.993592
15364  1 52.823272 24.270152 12.848904
15365  1 52.823272 24.270152 15.704216
15366  1 52.823272 24.270152 18.559528
15367  1 52.823272 24.270152 21.414840
15368  1 52.823272 24.270152 24.270152
15369  1 52.823272 24.270152 27.125464
15370  1 52.823272 24.270152 29.980776
15371  1 52.823272 24.270152 32.836088
15372  1 52.823272 24.270152 35.691400
15373  1 52.823272 24.270152 38.546712
15374  1 52.823272 24.270152 41.402024
15375  1 52.823272 24.270152 44.257336
15376  1 52.823272 24.270152 47.112648
15377  1 52.823272 24.270152 49.967960
15378  1 52.823272 24.270152 52.823272
15379  1 52.823272 24.270152 55.678584
15380  1 52.823272 27.125464  1.427656
15381  1 52.823272 27.125464  4.282968
15382  1 52.823272 27.125464  7.138280
15383  1 52.823272 27.125464  9.993592
15384  1 52.823272 27.125464 12.848904
15385  1 52.823272 27.125464 15.704216
15386  1 52.823272 27.125464 18.559528
15387  1 52.823272 27.125464 21.414840
15388  1 52.823272 27.125464 24.270152
15389  1 52.823272 27.125464 27.125464
15390  1 52.823272 27.125464 29.980776
15391  1 52.823272 27.125464 32.836088
15392  1 52.823272 27.125464 35.691400
15393  1 52.823272 27.125464 38.546712
15394  1 52.823272 27.125464 41.402024
15395  1 52.823272 27.125464 44.257336
15396  1 52.823272 27.125464 47.112648
15397  1 52.823272 27.125464 49.967960
15398  1 52.823272 27.125464 52.823272
15399  1 52.823272 27.125464 55.678584
15400  1 52.823272 29.980776  1.427656
15401  1 52.823272 29.980776  4.282968
15402  1 52.823272 29.980776  7.138280
15403  1 52.823272 29.980776  9.993592
15404  1 52.823272 29.980776 12.848904
15405  1 52.823272 29.980776 15.704216
15406  1 52.823272 29.980776 18.559528
15407  1 52.823272 29.980776 21.414840
15408  1 52.823272 29.980776 24.270152
15409  1 52.823272 29.980776 27.125464
15410  1 52.823272 29.980776 29.980776
15411  1 52.823272 29.980776 32.836088
15412  1 52.823272 29.980776 35.691400
15413  1 52.823272 29.980776 38.546712
15414  1 52.823272 29.980776 41.402024
15415  1 52.823272 29.980776 44.257336
15416  1 52.823272 29.980776 47.112648
15417  1 52.823272 29.980776 49.967960
15418  1 52.823272 29.980776 52.823272
15419  1 52.823272 29.980776 55.678584
15420  1 52.823272 32.836088  1.427656
15421  1 52.823272 32.836088  4.282968
15422  1 52.823272 32.836088  7.138280
15423  1 52.823272 32.836088  9.993592
15424  1 52.823272 32.836088 12.848904
15425  1 52.823272 32.836088 15.704216
15426  1 52.823272 32.836088 18.559528
15427  1 52.823272 32.836088 21.414840
15428  1 52.823272 32.836088 24.270152
15429  1 52.823272 32.836088 27.125464
15430  1 52.823272 32.836088 29.980776
15431  1 52.823272 32.836088 32.836088
15432  1 52.823272 32.836088 35.691400
15433  1 52.823272 32.836088 38.546712
15434  1 52.823272 32.836088 41.402024
15435  1 52.823272 32.836088 44.257336
15436  1 52.823272 32.836088 47.112648
15437  1 52.823272 32.836088 49.967960
15438  1 52.823272 32.836088 52.823272
15439  1 52.823272 32.836088 55.678584
15440  1 52.823272 35.691400  1.427656
15441  1 52.823272 35.691400  4.282968
15442  1 52.823272 35.691400  7.138280
15443  1 52.823272 35.691400  9.993592
15444  1 52.823272 35.691400 12.848904
15445  1 52.823272 35.691400 15.704216
15446  1 52.823272 35.691400 18.559528
15447  1 52.823272 35.691400 21.414840
15448  1 52.823272 35.691400 24.270152
15449  1 52.823272 35.691400 27.125464
15450  1 52.823272 35.691400 29.980776
15451  1 52.823272 35.691400 32.836088
15452  1 52.823272 35.691400 35.691400
15453  1 52.823272 35.691400 38.546712
15454  1 52.823272 35.691400 41.402024
15455  1 52.823272 35.691400 44.257336
15456  1 52.823272 35.691400 47.112648
15457  1 52.823272 35.691400 49.967960
15458  1 52.823272 35.691400 52.823272
15459  1 52.823272 35.691400 55.678584
15460  1 52.823272 38.546712  1.427656
15461  1 52.823272 38.546712  4.282968
15462  1 52.823272 38.546712  7.138280
15463  1 52.823272 38.546712  9.993592
15464  1 52.823272 38.546712 12.848904
15465  1 52.823272 38.546712 15.704216
15466  1 52.823272 38.546712 18.559528
15467  1 52.823272 38.546712 21.414840
15468  1 52.823272 38.546712 24.270152
15469  1 52.823272 38.546712 27.125464
15470  1 52.823272 38.546712 29.980776
15471  1 52.823272 38.546712 32.836088
15472  1 52.823272 38.546712 35.691400
15473  1 52.823272 38.546712 38.546712
15474  1 52.823272 38.546712 41.402024
15475  1 52.823272 38.546712 44.257336
15476  1 52.823272 38.546712 47.112648
15477  1 52.823272 38.546712 49.967960
15478  1 52.823272 38.546712 52.823272
15479  1 52.823272 38.546712 55.678584
15480  1 52.823272 41.402024  1.427656
15481  1 52.823272 41.402024  4.282968
15482  1 52.823272 41.402024  7.138280
15483  1 52.823272 41.402024  9.993592
15484  1 52.823272 41.402024 12.848904
15485  1 52.823272 41.402024 15.704216
15486  1 52.823272 41.402024 18.559528
15487  1 52.823272 41.402024 21.414840
15488  1 52.823272 41.402024 24.270152
15489  1 52.823272 41.402024 27.125464
15490  1 52.823272 41.402024 29.980776
15491  1 52.823272 41.402024 32.836088
15492  1 52.823272 41.402024 35.691400
15493  1 52.823272 41.402024 38.546712
15494  1 52.823272 41.402024 41.402024
15495  1 52.823272 41.402024 44.257336
15496  1 52.823272 41.402024 47.112648
15497  1 52.823272 41.402024 49.967960
15498  1 52.823272 41.402024 52.823272
15499  1 52.823272 41.402024 55.678584
15500  1 52.823272 44.257336  1.427656
15501  1 52.823272 44.257336  4.282968
15502  1 52.823272 44.257336  7.138280
15503  1 52.823272 44.257336  9.993592
15504  1 52.823272 44.257336 12.848904
15505  1 52.823272 44.257336 15.704216
15506  1 52.823272 44.257336 18.559528
15507  1 52.823272 44.257336 21.414840
15508  1 52.823272 44.257336 24.270152
15509  1 52.823272 44.257336 27.125464
15510  1 52.823272 44.257336 29.980776
15511  1 52.823272 44.257336 32.836088
15512  1 52.823272 44.257336 35.691400
15513  1 52.823272 44.257336 38.546712
15514  1 52.823272 44.257336 41.402024
15515  1 52.823272 44.257336 44.257336
15516  1 52.823272 44.257336 47.112648
15517  1 52.823272 44.257336 49.967960
15518  1 52.823272 44.257336 52.823272
15519  1 52.823272 44.257336 55.678584
15520  1 52.823272 47.112648  1.427656
15521  1 52.823272 47.112648  4.282968
15522  1 52.823272 47.112648  7.138280
15523  1 52.823272 47.112648  9.993592
15524  1 52.823272 47.112648 12.848904
15525  1 52.823272 47.112648 15.704216
15526  1 52.823272 47.112648 18.559528
15527  1 52.823272 47.112648 21.414840
15528  1 52.823272 47.112648 24.270152
15529  1 52.823272 47.112648 27.125464
15530  1 52.823272 47.112648 29.980776
15531  1 52.823272 47.112648 32.836088
15532  1 52.823272 47.112648 35.691400
15533  1 52.823272 47.112648 38.546712
15534  1 52.823272 47.112648 41.402024
15535  1 52.823272 47.112648 44.257336
15536  1 52.823272 47.112648 47.112648
15537  1 52.823272 47.112648 49.967960
15538  1 52.823272 47.112648 52.823272
15539  1 52.823272 47.112648 55.678584
15540  1 52.823272 49.967960  1.427656
15541  1 52.823272 49.967960  4.282968
15542  1 52.823272 49.967960  7.138280
15543  1 52.823272 49.967960  9.993592
15544  1 52.823272 49.967960 12.848904
15545  1 52.823272 49.967960 15.704216
15546  1 52.823272 49.967960 18.559528
15547  1 52.823272 49.967960 21.414840
15548  1 52.823272 49.967960 24.270152
15549  1 52.823272 49.967960 27.125464
15550  1 52.823272 49.967960 29.980776
15551  1 52.823272 49.967960 32.836088
15552  1 52.823272 49.967960 35.691400
15553  1 52.823272 49.967960 38.546712
15554  1 52.823272 49.967960 41.402024
15555  1 52.823272 49.967960 44.257336
15556  1 52.823272 49.967960 47.112648
15557  1 52.823272 49.967960 49.967960
15558  1 52.823272 49.967960 52.823272
15559  1 52.823272 49.967960 55.678584
15560  1 52.823272 52.823272  1.427656
15561  1 52.823272 52.823272  4.282968
15562  1 52.823272 52.823272  7.138280
15563  1 52.823272 52.823272  9.993592
15564  1 52.823272 52.823272 12.848904
15565  1 52.823272 52.823272 15.704216
15566  1 52.823272 52.823272 18.559528
15567  1 52.823272 52.823272 21.414840
15568  1 52.823272 52.823272 24.270152
15569  1 52.823272 52.823272 27.125464
15570  1 52.823272 52.823272 29.980776
15571  1 52.823272 52.823272 32.836088
15572  1 52.823272 52.823272 35.691400
15573  1 52.823272 52.823272 38.546712
15574  1 52.823272 52.823272 41.402024
15575  1 52.823272 52.823272 44.257336
15576  1 52.823272 52.823272 47.112648
15577  1 52.823272 52.823272 49.967960
15578  1 52.823272 52.823272 52.823272
15579  1 52.823272 52.823272 55.678584
15580  1 52.823272 55.678584  1.427656
15581  1 52.823272 55.678584  4.282968
15582  1 52.823272 55.678584  7.138280
15583  1 52.823272 55.678584  9.993592
15584  1 52.823272 55.678584 12.848904
15585  1 52.823272 55.678584 15.704216
15586  1 52.823272 55.678584 18.559528
15587  1 52.823272 55.678584 21.414840
15588  1 52.823272 55.678584 24.270152
15589  1 52.823272 55.678584 27.125464
15590  1 52.823272 55.678584 29.980776
15591  1 52.823272 55.678584 32.836088
15592  1 52.823272 55.678584 35.691400
15593  1 52.823272 55.678584 38.546712
15594  1 52.823272 55.678584 41.402024
15595  1 52.823272 55.678584 44.257336
15596  1 52.823272 55.678584 47.112648
15597  1 52.823272 55.678584 49.967960
15598  1 52.823272 55.678584 52.823272
15599  1 52.823272 55.678584 55.678584
15600  1 55.678584  1.427656  1.427656
15601  1 55.678584  1.427656  4.282968
15602  1 55.678584  1.427656  7.138280
15603  1 55.678584  1.427656  9.993592
15604  1 55.678584  1.427656 12.848904
15605  1 55.678584  1.427656 15.704216
15606  1 55.678584  1.427656 18.559528
15607  1 55.678584  1.427656 21.414840
15608  1 55.678584  1.427656 24.270152
15609  1 55.678584  1.427656 27.125464
15610  1 55.678584  1.427656 29.980776
15611  1 55.678584  1.427656 32.836088
15612  1 55.678584  1.427656 35.691400
15613  1 55.678584  1.427656 38.546712
15614  1 55.678584  1.427656 41.402024
15615  1 55.678584  1.427656 44.257336
15616  1 55.678584  1.427656 47.112648
15617  1 55.678584  1.427656 49.967960
15618  1 55.678584  1.427656 52.823272
15619  1 55.678584  1.427656 55.678584
15620  1 55.678584  4.282968  1.427656
15621  1 55.678584  4.282968  4.282968
15622  1 55.678584  4.282968  7.138280
15623  1 55.678584  4.282968  9.993592
15624  1 55.678584  4.282968 12.848904
15625  1 55.678584  4.282968 15.704216
15626  1 55.678584  4.282968 18.559528
15627  1 55.678584  4.282968 21.414840
15628  1 55.678584  4.282968 24.270152
15629  1 55.678584  4.282968 27.125464
15630  1 55.678584  4.282968 29.980776
15631  1 55.678584  4.282968 32.836088
15632  1 55.678584  4.282968 35.691400
15633  1 55.678584  4.282968 38.546712
15634  1 55.678584  4.282968 41.402024
15635  1 55.678584  4.282968 44.257336
15636  1 55.678584  4.282968 47.112648
15637  1 55.678584  4.282968 49.967960
15638  1 55.678584  4.282968 52.823272
15639  1 55.678584  4.282968 55.678584
15640  1 55.678584  7.138280  1.427656
15641  1 55.678584  7.138280  4.282968
15642  1 55.678584  7.138280  7.138280
15643  1 55.678584  7.138280  9.993592
15644  1 55.678584  7.138280 12.848904
15645  1 55.678584  7.138280 15.704216
15646  1 55.678584  7.138280 18.559528
15647  1 55.678584  7.138280 21.414840
15648  1 55.678584  7.138280 24.270152
15649  1 55.678584  7.138280 27.125464
15650  1 55.678584  7.138280 29.980776
15651  1 55.678584  7.138280 32.836088
15652  1 55.678584  7.138280 35.691400
15653  1 55.678584  7.138280 38.546712
15654  1 55.678584  7.138280 41.402024
15655  1 55.678584  7.138280 44.257336
15656  1 55.678584  7.138280 47.112648
15657  1 55.678584  7.138280 49.967960
15658  1 55.678584  7.138280 52.823272
15659  1 55.678584  7.138280 55.678584
15660  1 55.678584  9.993592  1.427656
15661  1 55.678584  9.993592  4.282968
15662  1 55.678584  9.993592  7.138280
15663  1 55.678584  9.993592  9.993592
15664  1 55.678584  9.993592 12.848904
15665  1 55.678584  9.993592 15.704216
15666  1 55.678584  9.993592 18.559528
15667  1 55.678584  9.993592 21.414840
15668  1 55.678584  9.993592 24.270152
15669  1 55.678584  9.993592 27.125464
15670  1 55.678584  9.993592 29.980776
15671  1 55.678584  9.993592 32.836088
15672  1 55.678584  9.993592 35.691400
15673  1 55.678584  9.993592 38.546712
15674  1 55.678584  9.993592 41.402024
15675  1 55.678584  9.993592 44.257336
15676  1 55.678584  9.993592 47.112648
15677  1 55.678584  9.993592 49.967960
15678  1 55.678584  9.993592 52.823272
15679  1 55.678584  9.993592 55.678584
15680  1 55.678584 12.848904  1.427656
15681  1 55.678584 12.848904  4.282968
15682  1 55.678584 12.848904  7.138280
15683  1 55.678584 12.848904  9.993592
15684  1 55.678584 12.848904 12.848904
15685  1 55.678584 12.848904 15.704216
15686  1 55.678584 12.848904 18.559528
15687  1 55.678584 12.848904 21.414840
15688  1 55.678584 12.848904 24.270152
15689  1 55.678584 12.848904 27.125464
15690  1 55.678584 12.848904 29.980776
15691  1 55.678584 12.848904 32.836088
15692  1 55.678584 12.848904 35.691400
15693  1 55.678584 12.848904 38.546712
15694  1 55.678584 12.848904 41.402024
15695  1 55.678584 12.848904 44.257336
15696  1 55.678584 12.848904 47.112648
15697  1 55.678584 12.848904 49.967960
15698  1 55.678584 12.848904 52.823272
15699  1 55.678584 12.848904 55.678584
15700  1 55.678584 15.704216  1.427656
15701  1 55.678584 15.704216  4.282968
15702  1 55.678584 15.704216  7.138280
15703  1 55.678584 15.704216  9.993592
15704  1 55.678584 15.704216 12.848904
15705  1 55.678584 15.704216 15.704216
15706  1 55.678584 15.704216 18.559528
15707  1 55.678584 15.704216 21.414840
15708  1 55.678584 15.704216 24.270152
15709  1 55.678584 15.704216 27.125464
15710  1 55.678584 15.704216 29.980776
15711  1 55.678584 15.704216 32.836088
15712  1 55.678584 15.704216 35.691400
15713  1 55.678584 15.704216 38.546712
15714  1 55.678584 15.704216 41.402024
15715  1 55.678584 15.704216 44.257336
15716  1 55.678584 15.704216 47.112648
15717  1 55.678584 15.704216 49.967960
15718  1 55.678584 15.704216 52.823272
15719  1 55.678584 15.704216 55.678584
15720  1 55.678584 18.559528  1.427656
15721  1 55.678584 18.559528  4.282968
15722  1 55.678584 18.559528  7.138280
15723  1 55.678584 18.559528  9.993592
15724  1 55.678584 18.559528 12.848904
15725  1 55.678584 18.559528 15.704216
15726  1 55.678584 18.559528 18.559528
15727  1 55.678584 18.559528 21.414840
15728  1 55.678584 18.559528 24.270152
15729  1 55.678584 18.559528 27.125464
15730  1 55.678584 18.559528 29.980776
15731  1 55.678584 18.559528 32.836088
15732  1 55.678584 18.559528 35.691400
15733  1 55.678584 18.559528 38.546712
15734  1 55.678584 18.559528 41.402024
15735  1 55.678584 18.559528 44.257336
15736  1 55.678584 18.559528 47.112648
15737  1 55.678584 18.559528 49.967960
15738  1 55.678584 18.559528 52.823272
15739  1 55.678584 18.559528 55.678584
15740  1 55.678584 21.414840  1.427656
15741  1 55.678584 21.414840  4.282968
15742  1 55.678584 21.414840  7.138280
15743  1 55.678584 21.414840  9.993592
15744  1 55.678584 21.414840 12.848904
15745  1 55.678584 21.414840 15.704216
15746  1 55.678584 21.414840 18.559528
15747  1 55.678584 21.414840 21.414840
15748  1 55.678584 21.414840 24.270152
15749  1 55.678584 21.414840 27.125464
15750  1 55.678584 21.414840 29.980776
15751  1 55.678584 21.414840 32.836088
15752  1 55.678584 21.414840 35.691400
15753  1 55.678584 21.414840 38.546712
15754  1 55.678584 21.414840 41.402024
15755  1 55.678584 21.414840 44.257336
15756  1 55.678584 21.414840 47.112648
15757  1 55.678584 21.414840 49.967960
15758  1 55.678584 21.414840 52.823272
15759  1 55.678584 21.414840 55.678584
15760  1 55.678584 24.270152  1.427656
15761  1 55.678584 24.270152  4.282968
15762  1 55.678584 24.270152  7.138280
15763  1 55.678584 24.270152  9.993592
15764  1 55.678584 24.270152 12.848904
15765  1 55.678584 24.270152 15.704216
15766  1 55.678584 24.270152 18.559528
15767  1 55.678584 24.270152 21.414840
15768  1 55.678584 24.270152 24.270152
15769  1 55.678584 24.270152 27.125464
15770  1 55.678584 24.270152 29.980776
15771  1 55.678584 24.270152 32.836088
15772  1 55.678584 24.270152 35.691400
15773  1 55.678584 24.270152 38.546712
15774  1 55.678584 24.270152 41.402024
15775  1 55.678584 24.270152 44.257336
15776  1 55.678584 24.270152 47.112648
15777  1 55.678584 24.270152 49.967960
15778  1 55.678584 24.270152 52.823272
15779  1 55.678584 24.270152 55.678584
15780  1 55.678584 27.125464  1.427656
15781  1 55.678584 27.125464  4.282968
15782  1 55.678584 27.125464  7.138280
15783  1 55.678584 27.125464  9.993592
15784  1 55.678584 27.125464 12.848904
15785  1 55.678584 27.125464 15.704216
15786  1 55.678584 27.125464 18.559528
15787  1 55.678584 27.125464 21.414840
15788  1 55.678584 27.125464 24.270152
15789  1 55.678584 27.125464 27.125464
15790  1 55.678584 27.125464 29.980776
15791  1 55.678584 27.125464 32.836088
15792  1 55.678584 27.125464 35.691400
15793  1 55.678584 27.125464 38.546712
15794  1 55.678584 27.125464 41.402024
15795  1 55.678584 27.125464 44.257336
15796  1 55.678584 27.125464 47.112648
15797  1 55.678584 27.125464 49.967960
15798  1 55.678584 27.125464 52.823272
15799  1 55.678584 27.125464 55.678584
15800  1 55.678584 29.980776  1.427656
15801  1 55.678584 29.980776  4.282968
15802  1 55.678584 29.980776  7.138280
15803  1 55.678584 29.980776  9.993592
15804  1 55.678584 29.980776 12.848904
15805  1 55.678584 29.980776 15.704216
15806  1 55.678584 29.980776 18.559528
15807  1 55.678584 29.980776 21.414840
15808  1 55.678584 29.980776 24.270152
15809  1 55.678584 29.980776 27.125464
15810  1 55.678584 29.980776 29.980776
15811  1 55.678584 29.980776 32.836088
15812  1 55.678584 29.980776 35.691400
15813  1 55.678584 29.980776 38.546712
15814  1 55.678584 29.980776 41.402024
15815  1 55.678584 29.980776 44.257336
15816  1 55.678584 29.980776 47.112648
15817  1 55.678584 29.980776 49.967960
15818  1 55.678584 29.980776 52.823272
15819  1 55.678584 29.980776 55.678584
15820  1 55.678584 32.836088  1.427656
15821  1 55.678584 32.836088  4.282968
15822  1 55.678584 32.836088  7.138280
15823  1 55.678584 32.836088  9.993592
15824  1 55.678584 32.836088 12.848904
15825  1 55.678584 32.836088 15.704216
15826  1 55.678584 32.836088 18.559528
15827  1 55.678584 32.836088 21.414840
15828  1 55.678584 32.836088 24.270152
15829  1 55.678584 32.836088 27.125464
15830  1 55.678584 32.836088 29.980776
15831  1 55.678584 32.836088 32.836088
15832  1 55.678584 32.836088 35.691400
15833  1 55.678584 32.836088 38.546712
15834  1 55.678584 32.836088 41.402024
15835  1 55.678584 32.836088 44.257336
15836  1 55.678584 32.836088 47.112648
15837  1 55.678584 32.836088 49.967960
15838  1 55.678584 32.836088 52.823272
15839  1 55.678584 32.836088 55.678584
15840  1 55.678584 35.691400  1.427656
15841  1 55.678584 35.691400  4.282968
15842  1 55.678584 35.691400  7.138280
15843  1 55.678584 35.691400  9.993592
15844  1 55.678584 35.691400 12.848904
15845  1 55.678584 35.691400 15.704216
15846  1 55.678584 35.691400 18.559528
15847  1 55.678584 35.691400 21.414840
15848  1 55.678584 35.691400 24.270152
15849  1 55.678584 35.691400 27.125464
15850  1 55.678584 35.691400 29.980776
15851  1 55.678584 35.691400 32.836088
15852  1 55.678584 35.691400 35.691400
15853  1 55.678584 35.691400 38.546712
15854  1 55.678584 35.691400 41.402024
15855  1 55.678584 35.691400 44.257336
15856  1 55.678584 35.691400 47.112648
15857  1 55.678584 35.691400 49.967960
15858  1 55.678584 35.691400 52.823272
15859  1 55.678584 35.691400 55.678584
15860  1 55.678584 38.546712  1.427656
15861  1 55.678584 38.546712  4.282968
15862  1 55.678584 38.546712  7.138280
15863  1 55.678584 38.546712  9.993592
15864  1 55.678584 38.546712 12.848904
15865  1 55.678584 38.546712 15.704216
15866  1 55.678584 38.546712 18.559528
15867  1 55.678584 38.546712 21.414840
15868  1 55.678584 38.546712 24.270152
15869  1 55.678584 38.546712 27.125464
15870  1 55.678584 38.546712 29.980776
15871  1 55.678584 38.546712 32.836088
15872  1 55.678584 38.546712 35.691400
15873  1 55.678584 38.546712 38.546712
15874  1 55.678584 38.546712 41.402024
15875  1 55.678584 38.546712 44.257336
15876  1 55.678584 38.546712 47.112648
15877  1 55.678584 38.546712 49.967960
15878  1 55.678584 38.546712 52.823272
15879  1 55.678584 38.546712 55.678584
15880  1 55.678584 41.402024  1.427656
15881  1 55.678584 41.402024  4.282968
15882  1 55.678584 41.402024  7.138280
15883  1 55.678584 41.402024  9.993592
15884  1 55.678584 41.402024 12.848904
15885  1 55.678584 41.402024 15.704216
15886  1 55.678584 41.402024 18.559528
15887  1 55.678584 41.402024 21.414840
15888  1 55.678584 41.402024 24.270152
15889  1 55.678584 41.402024 27.125464
15890  1 55.678584 41.402024 29.980776
15891  1 55.678584 41.402024 32.836088
15892  1 55.678584 41.402024 35.691400
15893  1 55.678584 41.402024 38.546712
15894  1 55.678584 41.402024 41.402024
15895  1 55.678584 41.402024 44.257336
15896  1 55.678584 41.402024 47.112648
15897  1 55.678584 41.402024 49.967960
15898  1 55.678584 41.402024 52.823272
15899  1 55.678584 41.402024 55.678584
15900  1 55.678584 44.257336  1.427656
15901  1 55.678584 44.257336  4.282968
15902  1 55.678584 44.257336  7.138280
15903  1 55.678584 44.257336  9.993592
15904  1 55.678584 44.257336 12.848904
15905  1 55.678584 44.257336 15.704216
15906  1 55.678584 44.257336 18.559528
15907  1 55.678584 44.257336 21.414840
15908  1 55.678584 44.257336 24.270152
15909  1 55.678584 44.257336 27.125464
15910  1 55.678584 44.257336 29.980776
15911  1 55.678584 44.257336 32.836088
15912  1 55.678584 44.257336 35.691400
15913  1 55.678584 44.257336 38.546712
15914  1 55.678584 44.257336 41.402024
15915  1 55.678584 44.257336 44.257336
15916  1 55.678584 44.257336 47.112648
15917  1 55.678584 44.257336 49.967960
15918  1 55.678584 44.257336 52.823272
15919  1 55.678584 44.257336 55.678584
15920  1 55.678584 47.112648  1.427656
15921  1 55.678584 47.112648  4.282968
15922  1 55.678584 47.112648  7.138280
15923  1 55.678584 47.112648  9.993592
15924  1 55.678584 47.112648 12.848904
15925  1 55.678584 47.112648 15.704216
15926  1 55.678584 47.112648 18.559528
15927  1 55.678584 47.112648 21.414840
15928  1 55.678584 47.112648 24.270152
15929  1 55.678584 47.112648 27.125464
15930  1 55.678584 47.112648 29.980776
15931  1 55.678584 47.112648 32.836088
15932  1 55.678584 47.112648 35.691400
15933  1 55.678584 47.112648 38.546712
15934  1 55.678584 47.112648 41.402024
15935  1 55.678584 47.112648 44.257336
15936  1 55.678584 47.112648 47.112648
15937  1 55.678584 47.112648 49.967960
15938  1 55.678584 47.112648 52.823272
15939  1 55.678584 47.112648 55.678584
15940  1 55.678584 49.967960  1.427656
15941  1 55.678584 49.967960  4.282968
15942  1 55.678584 49.967960  7.138280
15943  1 55.678584 49.967960  9.993592
15944  1 55.678584 49.967960 12.848904
15945  1 55.678584 49.967960 15.704216
15946  1 55.678584 49.967960 18.559528
15947  1 55.678584 49.967960 21.414840
15948  1 55.678584 49.967960 24.270152
15949  1 55.678584 49.967960 27.125464
15950  1 55.678584 49.967960 29.980776
15951  1 55.678584 49.967960 32.836088
15952  1 55.678584 49.967960 35.691400
15953  1 55.678584 49.967960 38.546712
15954  1 55.678584 49.967960 41.402024
15955  1 55.678584 49.967960 44.257336
15956  1 55.678584 49.967960 47.112648
15957  1 55.678584 49.967960 49.967960
15958  1 55.678584 49.967960 52.823272
15959  1 55.678584 49.967960 55.678584
15960  1 55.678584 52.823272  1.427656
15961  1 55.678584 52.823272  4.282968
15962  1 55.678584 52.823272  7.138280
15963  1 55.678584 52.823272  9.993592
15964  1 55.678584 52.823272 12.848904
15965  1 55.678584 52.823272 15.704216
15966  1 55.678584 52.823272 18.559528
15967  1 55.678584 52.823272 21.414840
15968  1 55.678584 52.823272 24.270152
15969  1 55.678584 52.823272 27.125464
15970  1 55.678584 52.823272 29.980776
15971  1 55.678584 52.823272 32.836088
15972  1 55.678584 52.823272 35.691400
15973  1 55.678584 52.823272 38.546712
15974  1 55.678584 52.823272 41.402024
15975  1 55.678584 52.823272 44.257336
15976  1 55.678584 52.823272 47.112648
15977  1 55.678584 52.823272 49.967960
15978  1 55.678584 52.823272 52.823272
15979  1 55.678584 52.823272 55.678584
15980  1 55.678584 55.678584  1.427656
15981  1 55.678584 55.678584  4.282968
15982  1 55.678584 55.678584  7.138280
15983  1 55.678584 55.678584  9.993592
15984  1 55.678584 55.678584 12.848904
15985  1 55.678584 55.678584 15.704216
15986  1 55.678584 55.678584 18.559528
15987  1 55.678584 55.678584 21.414840
15988  1 55.678584 55.678584 24.270152
15989  1 55.678584 55.678584 27.125464
15990  1 55.678584 55.678584 29.980776
15991  1 55.678584 55.678584 32.836088
15992  1 55.678584 55.678584 35.691400
15993  1 55.678584 55.678584 38.546712
15994  1 55.678584 55.678584 41.402024
15995  1 55.678584 55.678584 44.257336
15996  1 55.678584 55.678584 47.112648
15997  1 55.678584 55.678584 49.967960
15998  1 55.678584 55.678584 52.823272
15999  1 55.678584 55.678584 55.678584
16000  1 29.266948 27.125464 28.553120

