Generated by pymatgen.io.lammps.data.LammpsData

1951  atoms

   2  atom types

0.000000000000 28.553120000000  xlo xhi
0.000000000000 28.553120000000  ylo yhi
0.000000000000 28.553120000000  zlo zhi
0.000000000000 0.000000000000 0.000000000000  xy xz yz

Masses

1  55.847000
2  30.973762

Atoms

1     0  1   1.188442678508  -1.188442678508   1.188442678508
2     0  1  -1.584590238011  -1.188442678508   1.188442678508
3     0  1   1.188442678508  -1.188442678508  -1.584590238011
4     0  1   1.188442678508   1.584590238011   1.188442678508
5     0  1  -1.584590238011  -1.188442678508  -1.584590238011
6     0  1  -1.584590238011   1.584590238011   1.188442678508
7     0  1   1.188442678508   1.584590238011  -1.584590238011
8     0  1  -1.584590238011   1.584590238011  -1.584590238011
9     0  1  -0.198073779751  -2.696184682094  -0.198073779751
10    0  1  -0.198073779751   0.198073779751   2.696184682094
11    0  1   2.696184682094   0.198073779751  -0.198073779751
12    0  1  -3.092332241597   0.198073779751  -0.198073779751
13    0  1  -0.198073779751   0.198073779751  -3.092332241597
14    0  1  -0.198073779751   3.092332241597  -0.198073779751
15    0  1  -0.198073779751  -2.650686028547   2.650686028547
16    0  1   2.650686028547  -2.650686028547  -0.198073779751
17    0  1   2.650686028547   0.198073779751   2.650686028547
18    0  1  -3.046833588050  -2.650686028547  -0.198073779751
19    0  1  -3.046833588050   0.198073779751   2.650686028547
20    0  1  -0.198073779751  -2.650686028547  -3.046833588050
21    0  1  -0.198073779751   3.046833588050   2.650686028547
22    0  1   2.650686028547   0.198073779751  -3.046833588050
23    0  1   2.650686028547   3.046833588050  -0.198073779751
24    0  1  -3.046833588050   0.198073779751  -3.046833588050
25    0  1  -3.046833588050   3.046833588050  -0.198073779751
26    0  1  -0.198073779751   3.046833588050  -3.046833588050
27    0  1   1.231128438359  -4.084784938413   1.231128438359
28    0  1   1.231128438359  -1.231128438359   4.084784938413
29    0  1   4.084784938413  -1.231128438359   1.231128438359
30    0  1  -1.627275997862  -4.084784938413   1.231128438359
31    0  1  -1.627275997862  -1.231128438359   4.084784938413
32    0  1   1.231128438359  -4.084784938413  -1.627275997862
33    0  1   1.231128438359   1.627275997862   4.084784938413
34    0  1   4.084784938413  -1.231128438359  -1.627275997862
35    0  1   4.084784938413   1.627275997862   1.231128438359
36    0  1   2.641431963841  -2.641431963841   2.641431963841
37    0  1  -1.627275997862  -4.084784938413  -1.627275997862
38    0  1  -1.627275997862   1.627275997862   4.084784938413
39    0  1   4.084784938413   1.627275997862  -1.627275997862
40    0  1  -4.480932497916  -1.231128438359   1.231128438359
41    0  1   1.231128438359  -1.231128438359  -4.480932497916
42    0  1   1.231128438359   4.480932497916   1.231128438359
43    0  1  -3.037579523344  -2.641431963841   2.641431963841
44    0  1   2.641431963841  -2.641431963841  -3.037579523344
45    0  1   2.641431963841   3.037579523344   2.641431963841
46    0  1  -4.480932497916  -1.231128438359  -1.627275997862
47    0  1  -4.480932497916   1.627275997862   1.231128438359
48    0  1  -1.627275997862  -1.231128438359  -4.480932497916
49    0  1  -1.627275997862   4.480932497916   1.231128438359
50    0  1   1.231128438359   1.627275997862  -4.480932497916
51    0  1   1.231128438359   4.480932497916  -1.627275997862
52    0  1  -4.480932497916   1.627275997862  -1.627275997862
53    0  1  -1.627275997862   1.627275997862  -4.480932497916
54    0  1  -1.627275997862   4.480932497916  -1.627275997862
55    0  1  -3.037579523344  -2.641431963841  -3.037579523344
56    0  1  -3.037579523344   3.037579523344   2.641431963841
57    0  1   2.641431963841   3.037579523344  -3.037579523344
58    0  1  -3.037579523344   3.037579523344  -3.037579523344
59    0  1  -0.198073779751  -5.514970576291  -0.198073779751
60    0  1  -0.198073779751   0.198073779751   5.514970576291
61    0  1   5.514970576291   0.198073779751  -0.198073779751
62    0  1  -5.911118135793   0.198073779751  -0.198073779751
63    0  1  -0.198073779751   0.198073779751  -5.911118135793
64    0  1  -0.198073779751   5.911118135793  -0.198073779751
65    0  1  -0.198073779751  -5.511633745011   2.656424510796
66    0  1  -0.198073779751  -2.656424510796   5.511633745011
67    0  1   2.656424510796  -5.511633745011  -0.198073779751
68    0  1   2.656424510796   0.198073779751   5.511633745011
69    0  1   5.511633745011  -2.656424510796  -0.198073779751
70    0  1   5.511633745011   0.198073779751   2.656424510796
71    0  1   1.229160785322  -4.081251861051   4.081251861051
72    0  1   4.081251861051  -4.081251861051   1.229160785322
73    0  1   4.081251861051  -1.229160785322   4.081251861051
74    0  1  -1.625308344824  -4.081251861051   4.081251861051
75    0  1   4.081251861051  -4.081251861051  -1.625308344824
76    0  1   4.081251861051   1.625308344824   4.081251861051
77    0  1  -3.052572070298  -5.511633745011  -0.198073779751
78    0  1  -3.052572070298   0.198073779751   5.511633745011
79    0  1  -0.198073779751  -5.511633745011  -3.052572070298
80    0  1  -0.198073779751   3.052572070298   5.511633745011
81    0  1   5.511633745011   0.198073779751  -3.052572070298
82    0  1   5.511633745011   3.052572070298  -0.198073779751
83    0  1  -4.477399420554  -4.081251861051   1.229160785322
84    0  1  -4.477399420554  -1.229160785322   4.081251861051
85    0  1   1.229160785322  -4.081251861051  -4.477399420554
86    0  1   1.229160785322   4.477399420554   4.081251861051
87    0  1   4.081251861051  -1.229160785322  -4.477399420554
88    0  1   4.081251861051   4.477399420554   1.229160785322
89    0  1  -4.477399420554  -4.081251861051  -1.625308344824
90    0  1  -4.477399420554   1.625308344824   4.081251861051
91    0  1  -1.625308344824  -4.081251861051  -4.477399420554
92    0  1  -1.625308344824   4.477399420554   4.081251861051
93    0  1   4.081251861051   1.625308344824  -4.477399420554
94    0  1   4.081251861051   4.477399420554  -1.625308344824
95    0  1  -4.477399420554  -1.229160785322  -4.477399420554
96    0  1  -4.477399420554   4.477399420554   1.229160785322
97    0  1   1.229160785322   4.477399420554  -4.477399420554
98    0  1  -4.477399420554   1.625308344824  -4.477399420554
99    0  1  -4.477399420554   4.477399420554  -1.625308344824
100   0  1  -1.625308344824   4.477399420554  -4.477399420554
101   0  1  -5.907781304514  -2.656424510796  -0.198073779751
102   0  1  -5.907781304514   0.198073779751   2.656424510796
103   0  1  -0.198073779751  -2.656424510796  -5.907781304513
104   0  1  -0.198073779751   5.907781304513   2.656424510796
105   0  1   2.656424510796   0.198073779751  -5.907781304513
106   0  1   2.656424510796   5.907781304513  -0.198073779751
107   0  1   2.656369293070  -5.511309878920   2.656369293070
108   0  1   2.656369293070  -2.656369293070   5.511309878920
109   0  1   5.511309878920  -2.656369293070   2.656369293070
110   0  1  -5.907781304514   0.198073779751  -3.052572070298
111   0  1  -5.907781304514   3.052572070298  -0.198073779751
112   0  1  -3.052572070298   0.198073779751  -5.907781304513
113   0  1  -3.052572070298   5.907781304513  -0.198073779751
114   0  1  -0.198073779751   3.052572070298  -5.907781304513
115   0  1  -0.198073779751   5.907781304513  -3.052572070298
116   0  1  -3.052516852573  -5.511309878920   2.656369293070
117   0  1  -3.052516852573  -2.656369293070   5.511309878920
118   0  1   2.656369293070  -5.511309878920  -3.052516852573
119   0  1   2.656369293070   3.052516852573   5.511309878920
120   0  1   5.511309878920  -2.656369293070  -3.052516852573
121   0  1   5.511309878920   3.052516852573   2.656369293070
122   0  1  -3.052516852573  -5.511309878920  -3.052516852573
123   0  1  -3.052516852573   3.052516852573   5.511309878920
124   0  1   5.511309878920   3.052516852573  -3.052516852573
125   0  1   1.229658676463  -6.940422375478   1.229658676463
126   0  1   1.229658676463  -1.229658676463   6.940422375478
127   0  1   6.940422375478  -1.229658676463   1.229658676463
128   0  1  -5.907457438422  -2.656369293070   2.656369293070
129   0  1   2.656369293070  -2.656369293070  -5.907457438422
130   0  1   2.656369293070   5.907457438422   2.656369293070
131   0  1  -1.625806235966  -6.940422375478   1.229658676463
132   0  1  -1.625806235966  -1.229658676463   6.940422375478
133   0  1   1.229658676463  -6.940422375478  -1.625806235966
134   0  1   1.229658676463   1.625806235966   6.940422375478
135   0  1   6.940422375478  -1.229658676463  -1.625806235966
136   0  1   6.940422375478   1.625806235966   1.229658676463
137   0  1  -1.625806235966  -6.940422375478  -1.625806235966
138   0  1  -1.625806235966   1.625806235966   6.940422375478
139   0  1   6.940422375478   1.625806235966  -1.625806235966
140   0  1  -5.907457438422  -2.656369293070  -3.052516852573
141   0  1  -5.907457438422   3.052516852573   2.656369293070
142   0  1  -3.052516852573  -2.656369293070  -5.907457438422
143   0  1  -3.052516852573   5.907457438422   2.656369293070
144   0  1   2.656369293070   3.052516852573  -5.907457438422
145   0  1   2.656369293070   5.907457438422  -3.052516852573
146   0  1   4.078406300358  -4.078406300358   4.078406300358
147   0  1  -5.907457438422   3.052516852573  -3.052516852573
148   0  1  -3.052516852573   3.052516852573  -5.907457438422
149   0  1  -3.052516852573   5.907457438422  -3.052516852573
150   0  1  -7.336569934980  -1.229658676463   1.229658676463
151   0  1   1.229658676463  -1.229658676463  -7.336569934980
152   0  1   1.229658676463   7.336569934980   1.229658676463
153   0  1  -7.336569934980  -1.229658676463  -1.625806235966
154   0  1  -7.336569934980   1.625806235966   1.229658676463
155   0  1  -4.474553859860  -4.078406300358   4.078406300358
156   0  1  -1.625806235966  -1.229658676463  -7.336569934980
157   0  1  -1.625806235966   7.336569934980   1.229658676463
158   0  1   1.229658676463   1.625806235966  -7.336569934980
159   0  1   1.229658676463   7.336569934980  -1.625806235966
160   0  1   4.078406300358  -4.078406300358  -4.474553859860
161   0  1   4.078406300358   4.474553859860   4.078406300358
162   0  1  -7.336569934980   1.625806235966  -1.625806235966
163   0  1  -1.625806235966   1.625806235966  -7.336569934980
164   0  1  -1.625806235966   7.336569934980  -1.625806235966
165   0  1  -4.474553859860  -4.078406300358  -4.474553859860
166   0  1  -4.474553859860   4.474553859860   4.078406300358
167   0  1   4.078406300358   4.474553859860  -4.474553859860
168   0  1   1.229322835614   4.480283031965   6.939290543889
169   0  1   1.229322835614   7.335438103392   4.084135472462
170   0  1   1.229382566363   7.335110327044   6.938962767541
171   0  1  -3.053081675902   5.908054219059   8.367115072618
172   0  1  -3.052677973535   5.906581514232   5.510433954730
173   0  1   4.083885968422   4.480033527924   6.938952662789
174   0  1   4.083885968422   7.335100222292   4.083885968422
175   0  1  -3.053202476824   3.053202476824   8.367648149466
176   0  1   6.938952662789   4.480033527924   4.083885968422
177   0  1  -0.198073779751   8.763316825778   5.511956686909
178   0  1  -0.198073779751   8.763915642751   2.657104030370
179   0  1  -0.198073779751   5.908104246412   8.367169266276
180   0  1  -0.198073779751   5.906594765413   5.510447205911
181   0  1  -0.198073779751   3.053251589873   8.367768083249
182   0  1  -5.905774162532   5.905774162532   5.509626603029
183   0  1  -7.335100222292   4.480033527924   4.083885968422
184   0  1  -5.906581514232   5.906581514232   2.656530414032
185   0  1  -5.908054219059   3.053081675902   8.367115072618
186   0  1  -4.480033527924   4.480033527924   6.938952662789
187   0  1  -5.906581514232   3.052677973535   5.510433954730
188   0  1  -4.480033527924   7.335100222292   4.083885968422
189   0  1  -3.053202476824   8.763795708969   2.657054917321
190   0  1  -1.625470395117   4.480283031965   6.939290543889
191   0  1  -1.625470395117   7.335438103392   4.084135472462
192   0  1  -1.625530125866   7.335110327044   6.938962767541
193   0  1   2.657054917321   3.053202476824   8.367648149466
194   0  1   2.656530414032   5.906581514232   5.510433954730
195   0  1   2.656934116400   5.908054219059   8.367115072618
196   0  1   2.657054917321   8.763795708969   2.657054917321
197   0  1   2.656934116400   8.763262632121   5.511906659556
198   0  1   5.510433954730   3.052677973535   5.510433954730
199   0  1   5.511906659556   3.053081675902   8.367115072618
200   0  1   5.510433954730   5.906581514232   2.656530414032
201   0  1   5.509626603029   5.905774162532   5.509626603029
202   0  1   5.511906659556   8.763262632121   2.656934116400
203   0  1   8.367648149466   3.053202476824   2.657054917321
204   0  1   8.367115072618   3.053081675902   5.511906659556
205   0  1   8.367115072618   5.908054219059   2.656934116400
206   0  1  -8.763795708969   3.053202476824   2.657054917321
207   0  1   1.229322835614   4.480283031965  -7.335438103392
208   0  1   1.229382566363   7.335110327044  -7.335110327044
209   0  1   1.229322835614   7.335438103392  -4.480283031965
210   0  1   1.229561851676  10.191736987982  -1.625709411178
211   0  1   4.083885968422   4.480033527924  -7.335100222292
212   0  1   4.083885968422   7.335100222292  -4.480033527924
213   0  1   4.084135472462   7.335438103392  -1.625470395117
214   0  1  -0.198073779751   8.764319657864  -0.198073779751
215   0  1   6.938952662789   4.480033527924  -4.480033527924
216   0  1   6.939290543889   4.480283031965  -1.625470395117
217   0  1   6.938962767541   7.335110327044  -1.625530125866
218   0  1  -0.198073779751   8.763915642751  -3.053251589873
219   0  1  -0.198073779751   8.763316825778  -5.908104246412
220   0  1  -0.198073779751   5.906594765413  -5.906594765413
221   0  1  -0.198073779751   5.908104246412  -8.763316825778
222   0  1  -0.198073779751   3.053251589873  -8.763915642751
223   0  1  -7.335100222292   4.480033527924  -4.480033527924
224   0  1  -7.335438103392   4.480283031965  -1.625470395117
225   0  1  -7.335110327044   7.335110327044  -1.625530125866
226   0  1  -3.053251589873   8.763915642751  -0.198073779751
227   0  1  -3.053202476824   8.763795708969  -3.053202476824
228   0  1  -4.480033527924   4.480033527924  -7.335100222292
229   0  1  -4.474553859860   4.474553859860  -4.474553859860
230   0  1  -4.480033527924   7.335100222292  -4.480033527924
231   0  1  -4.480283031965   7.335438103392  -1.625470395117
232   0  1  -1.625470395117   4.480283031965  -7.335438103392
233   0  1  -1.625530125866   7.335110327044  -7.335110327044
234   0  1  -1.625470395117   7.335438103392  -4.480283031965
235   0  1  -1.625709411178  10.191736987982  -1.625709411178
236   0  1   2.657054917321   3.053202476824  -8.763795708969
237   0  1   2.656530414032   5.906581514232  -5.906581514232
238   0  1   2.657054917321   8.763795708969  -3.053202476824
239   0  1   2.657104030370   8.763915642751  -0.198073779751
240   0  1   5.510433954730   3.052677973535  -5.906581514232
241   0  1   5.509626603029   5.905774162532  -5.905774162532
242   0  1   5.510433954730   5.906581514232  -3.052677973535
243   0  1   5.510447205911   5.906594765413  -0.198073779751
244   0  1   5.511956686909   8.763316825778  -0.198073779751
245   0  1   8.367115072618   3.053081675902  -5.908054219059
246   0  1   8.367648149466   3.053202476824  -3.053202476824
247   0  1   8.367768083249   3.053251589873  -0.198073779751
248   0  1   8.367115072618   5.908054219059  -3.053081675902
249   0  1   8.367169266276   5.908104246412  -0.198073779751
250   0  1  -8.763795708969   3.053202476824  -3.053202476824
251   0  1  -8.763915642751   3.053251589873  -0.198073779751
252   0  1  -8.763316825778   5.908104246412  -0.198073779751
253   0  1  -5.906581514232   3.052677973535  -5.906581514232
254   0  1  -5.905774162532   5.905774162532  -5.905774162532
255   0  1  -5.906581514232   5.906581514232  -3.052677973535
256   0  1  -5.906594765413   5.906594765413  -0.198073779751
257   0  1  -5.908104246412   8.763316825778  -0.198073779751
258   0  1  -3.053202476824   3.053202476824  -8.763795708969
259   0  1  -3.052677973535   5.906581514232  -5.906581514232
260   0  1   1.229561851676  10.191736987982   1.229561851676
261   0  1   4.084135472462   7.335438103392   1.229322835614
262   0  1   6.939290543889   4.480283031965   1.229322835614
263   0  1   6.938962767541   7.335110327044   1.229382566363
264   0  1  -7.335438103392   4.480283031965   1.229322835614
265   0  1  -7.335110327044   7.335110327044   1.229382566363
266   0  1  -4.480283031965   7.335438103392   1.229322835614
267   0  1  -1.625709411178  10.191736987982   1.229561851676
268   0  1   1.229510380910  -9.795309837457   4.084719163402
269   0  1   1.229322835614  -6.939290543889   4.084135472462
270   0  1   1.229382566363  -6.938962767541   6.938962767541
271   0  1   1.229322835614  -4.084135472462   6.939290543889
272   0  1   1.229510380910  -4.084719163402   9.795309837457
273   0  1  -1.625709411178   1.625709411178   9.795589428479
274   0  1   1.229561851676  -1.229561851676   9.795589428479
275   0  1  -4.480283031965   1.625470395117   6.939290543889
276   0  1   4.083885968422  -6.938952662789   4.083885968422
277   0  1   4.084248293101  -6.938928417858   6.938928417858
278   0  1   4.083885968422  -4.083885968422   6.938952662789
279   0  1   4.084135472462  -1.229322835614   6.939290543889
280   0  1   4.084719163402  -1.229510380910   9.795309837457
281   0  1  -7.335110327044   1.625530125866   6.938962767541
282   0  1   6.938928417858  -6.938928417858   4.084248293101
283   0  1  -7.335438103392   1.625470395117   4.084135472462
284   0  1   6.938952662789  -4.083885968422   4.083885968422
285   0  1   6.938928417858  -4.084248293101   6.938928417858
286   0  1   6.939290543889  -1.229322835614   4.084135472462
287   0  1   6.938962767541  -1.229382566363   6.938962767541
288   0  1   9.795309837457  -1.229510380910   4.084719163402
289   0  1   6.938962767541   1.625530125866   6.938962767541
290   0  1   6.939290543889   1.625470395117   4.084135472462
291   0  1   4.084135472462   1.625470395117   6.939290543889
292   0  1  -7.335100222292  -4.083885968422   4.083885968422
293   0  1  -7.335438103392  -1.229322835614   4.084135472462
294   0  1  -7.335110327044  -1.229382566363   6.938962767541
295   0  1   1.229561851676   1.625709411178   9.795589428479
296   0  1  -0.198073779751   0.198073779751   8.368172098361
297   0  1  -4.480033527924  -6.938952662789   4.083885968422
298   0  1  -4.480033527924  -4.083885968422   6.938952662789
299   0  1  -4.480283031965  -1.229322835614   6.939290543889
300   0  1  -1.625470395117  -6.939290543889   4.084135472462
301   0  1  -1.625530125866  -6.938962767541   6.938962767541
302   0  1  -1.625470395117  -4.084135472462   6.939290543889
303   0  1  -1.625709411178  -1.229561851676   9.795589428479
304   0  1   2.657054917321  -8.367648149466   2.657054917321
305   0  1   2.656934116400  -8.367115072618   5.511906659556
306   0  1   2.656530414032  -5.510433954730   5.510433954730
307   0  1   2.656934116400  -5.511906659556   8.367115072618
308   0  1   2.657054917321  -2.657054917321   8.367648149466
309   0  1   2.657104030370   0.198073779751   8.367768083249
310   0  1   5.511906659556  -8.367115072618   2.656934116400
311   0  1   5.510433954730  -5.510433954730   2.656530414032
312   0  1   5.509626603029  -5.509626603029   5.509626603029
313   0  1   5.510433954730  -2.656530414032   5.510433954730
314   0  1   5.511906659556  -2.656934116400   8.367115072618
315   0  1   5.510447205911   0.198073779751   5.510447205911
316   0  1   5.511956686909   0.198073779751   8.367169266276
317   0  1   8.367115072618  -5.511906659556   2.656934116400
318   0  1   8.367648149466  -2.657054917321   2.657054917321
319   0  1   8.367115072618  -2.656934116400   5.511906659556
320   0  1   8.367768083249   0.198073779751   2.657104030370
321   0  1   8.367169266276   0.198073779751   5.511956686909
322   0  1  -8.763262632121  -5.511906659556   2.656934116400
323   0  1  -8.763795708969  -2.657054917321   2.657054917321
324   0  1  -8.763262632121  -2.656934116400   5.511906659556
325   0  1  -8.763915642751   0.198073779751   2.657104030370
326   0  1  -8.763316825778   0.198073779751   5.511956686909
327   0  1  -5.908054219059  -8.367115072618   2.656934116400
328   0  1  -5.906581514232  -5.510433954730   2.656530414032
329   0  1  -5.905774162532  -5.509626603029   5.509626603029
330   0  1  -5.906581514232  -2.656530414032   5.510433954730
331   0  1  -5.908054219059  -2.656934116400   8.367115072618
332   0  1  -5.906594765413   0.198073779751   5.510447205911
333   0  1  -5.908104246412   0.198073779751   8.367169266276
334   0  1  -3.053202476824  -8.367648149466   2.657054917321
335   0  1  -3.053081675902  -8.367115072618   5.511906659556
336   0  1  -3.052677973535  -5.510433954730   5.510433954730
337   0  1  -3.053081675902  -5.511906659556   8.367115072618
338   0  1  -3.053202476824  -2.657054917321   8.367648149466
339   0  1  -3.053251589873   0.198073779751   8.367768083249
340   0  1  -0.198073779751  -8.367768083249   2.657104030370
341   0  1  -0.198073779751  -8.367169266276   5.511956686909
342   0  1  -0.198073779751  -5.510447205911   5.510447205911
343   0  1  -0.198073779751  -5.511956686909   8.367169266276
344   0  1  -0.198073779751  -2.657104030370   8.367768083249
345   0  1   1.229561851676  -9.795589428479  -1.625709411178
346   0  1   1.229382566363  -6.938962767541  -7.335110327044
347   0  1   1.229322835614  -6.939290543889  -4.480283031965
348   0  1   1.229322835614  -4.084135472462  -7.335438103392
349   0  1   1.229561851676  -1.229561851676 -10.191736987982
350   0  1   4.083885968422  -6.938952662789  -4.480033527924
351   0  1   4.084135472462  -6.939290543889  -1.625470395117
352   0  1   4.083885968422  -4.083885968422  -7.335100222292
353   0  1   4.084135472462  -1.229322835614  -7.335438103392
354   0  1   6.938962767541  -6.938962767541  -1.625530125866
355   0  1   6.938952662789  -4.083885968422  -4.480033527924
356   0  1   6.939290543889  -4.084135472462  -1.625470395117
357   0  1   6.938962767541  -1.229382566363  -7.335110327044
358   0  1   6.939290543889  -1.229322835614  -4.480283031965
359   0  1   9.795589428479  -1.229561851676  -1.625709411178
360   0  1 -10.191736987982  -1.229561851676  -1.625709411178
361   0  1  -7.335110327044  -6.938962767541  -1.625530125866
362   0  1  -7.335100222292  -4.083885968422  -4.480033527924
363   0  1  -7.335438103392  -4.084135472462  -1.625470395117
364   0  1  -7.335110327044  -1.229382566363  -7.335110327044
365   0  1  -7.335438103392  -1.229322835614  -4.480283031965
366   0  1  -4.480033527924  -6.938952662789  -4.480033527924
367   0  1  -4.480283031965  -6.939290543889  -1.625470395117
368   0  1  -4.480033527924  -4.083885968422  -7.335100222292
369   0  1  -4.480283031965  -1.229322835614  -7.335438103392
370   0  1  -1.625709411178  -9.795589428479  -1.625709411178
371   0  1  -1.625530125866  -6.938962767541  -7.335110327044
372   0  1  -1.625470395117  -6.939290543889  -4.480283031965
373   0  1  -1.625470395117  -4.084135472462  -7.335438103392
374   0  1  -1.625709411178   1.625709411178 -10.191736987982
375   0  1  -1.625709411178  -1.229561851676 -10.191736987982
376   0  1   2.656934116400  -8.367115072618  -5.908054219059
377   0  1   2.657054917321  -8.367648149466  -3.053202476824
378   0  1   2.657104030370  -8.367768083249  -0.198073779751
379   0  1   2.656934116400  -5.511906659556  -8.763262632121
380   0  1   2.656530414032  -5.510433954730  -5.906581514232
381   0  1   2.657054917321  -2.657054917321  -8.763795708969
382   0  1   2.657104030370   0.198073779751  -8.763915642751
383   0  1   5.511906659556  -8.367115072618  -3.053081675902
384   0  1   5.511956686909  -8.367169266276  -0.198073779751
385   0  1   5.509626603029  -5.509626603029  -5.905774162532
386   0  1   5.510433954730  -5.510433954730  -3.052677973535
387   0  1   5.510447205911  -5.510447205911  -0.198073779751
388   0  1   5.511906659556  -2.656934116400  -8.763262632121
389   0  1   5.510433954730  -2.656530414032  -5.906581514232
390   0  1   5.511956686909   0.198073779751  -8.763316825778
391   0  1   5.510447205911   0.198073779751  -5.906594765413
392   0  1   8.367115072618  -5.511906659556  -3.053081675902
393   0  1   8.367169266276  -5.511956686909  -0.198073779751
394   0  1   8.367115072618  -2.656934116400  -5.908054219059
395   0  1   8.367648149466  -2.657054917321  -3.053202476824
396   0  1   8.367768083249  -2.657104030370  -0.198073779751
397   0  1   8.367169266276   0.198073779751  -5.908104246412
398   0  1   8.367768083249   0.198073779751  -3.053251589873
399   0  1   8.368172098361   0.198073779751  -0.198073779751
400   0  1  -8.763316825778  -5.511956686909  -0.198073779751
401   0  1  -8.763795708969  -2.657054917321  -3.053202476824
402   0  1  -8.763915642751  -2.657104030370  -0.198073779751
403   0  1  -8.763316825778   0.198073779751  -5.908104246412
404   0  1  -8.763915642751   0.198073779751  -3.053251589873
405   0  1  -8.764319657864   0.198073779751  -0.198073779751
406   0  1  -5.908054219059  -8.367115072618  -3.053081675902
407   0  1  -5.908104246412  -8.367169266276  -0.198073779751
408   0  1  -5.905774162532  -5.509626603029  -5.905774162532
409   0  1  -5.906581514232  -5.510433954730  -3.052677973535
410   0  1  -5.906594765413  -5.510447205911  -0.198073779751
411   0  1  -5.906581514232  -2.656530414032  -5.906581514232
412   0  1  -5.908104246412   0.198073779751  -8.763316825778
413   0  1  -5.906594765413   0.198073779751  -5.906594765413
414   0  1  -3.053081675902  -8.367115072618  -5.908054219059
415   0  1  -3.053202476824  -8.367648149466  -3.053202476824
416   0  1  -3.053251589873  -8.367768083249  -0.198073779751
417   0  1  -3.052677973535  -5.510433954730  -5.906581514232
418   0  1  -3.053202476824  -2.657054917321  -8.763795708969
419   0  1  -3.053251589873   0.198073779751  -8.763915642751
420   0  1  -0.198073779751  -8.367169266276  -5.908104246412
421   0  1  -0.198073779751  -8.367768083249  -3.053251589873
422   0  1  -0.198073779751  -8.368172098361  -0.198073779751
423   0  1  -0.198073779751  -5.511956686909  -8.763316825778
424   0  1  -0.198073779751  -5.510447205911  -5.906594765413
425   0  1  -0.198073779751  -2.657104030370  -8.763915642751
426   0  1  -0.198073779751   0.198073779751  -8.764319657864
427   0  1   1.229561851676   1.625709411178 -10.191736987982
428   0  1   4.084135472462   1.625470395117  -7.335438103392
429   0  1   6.938962767541   1.625530125866  -7.335110327044
430   0  1   6.939290543889   1.625470395117  -4.480283031965
431   0  1   9.795589428479   1.625709411178  -1.625709411178
432   0  1 -10.191736987982   1.625709411178  -1.625709411178
433   0  1  -7.335110327044   1.625530125866  -7.335110327044
434   0  1  -7.335438103392   1.625470395117  -4.480283031965
435   0  1  -4.480283031965   1.625470395117  -7.335438103392
436   0  1   1.229561851676  -9.795589428479   1.229561851676
437   0  1   4.084719163402  -9.795309837457   1.229510380910
438   0  1   4.084135472462  -6.939290543889   1.229322835614
439   0  1   6.938962767541  -6.938962767541   1.229382566363
440   0  1   6.939290543889  -4.084135472462   1.229322835614
441   0  1   9.795309837457  -4.084719163402   1.229510380910
442   0  1   9.795589428479  -1.229561851676   1.229561851676
443   0  1 -10.191736987982   1.625709411178   1.229561851676
444   0  1   9.795589428479   1.625709411178   1.229561851676
445   0  1 -10.191736987982  -1.229561851676   1.229561851676
446   0  1  -7.335110327044  -6.938962767541   1.229382566363
447   0  1  -7.335438103392  -4.084135472462   1.229322835614
448   0  1  -4.480283031965  -6.939290543889   1.229322835614
449   0  1  -1.625709411178  -9.795589428479   1.229561851676
450   0  1  -0.198073779751 -14.078486220249  14.078486220249
451   0  1  -0.198073779751 -14.078486220249  11.223011991005
452   0  1  -0.198073779751 -14.078486220249   8.367710761297
453   0  1   1.229510380910   4.480866722904   9.795309837457
454   0  1   1.229561525913   4.481000339400  12.650792122045
455   0  1   1.229498999813   7.335910756861   9.795014003190
456   0  1   1.229548006183   7.336213117792  12.650708343796
457   0  1   1.229510380910  10.191457396960   4.084719163402
458   0  1   1.229498999813  10.191161562693   6.939763197358
459   0  1   1.229518689110  10.191210763929   9.795063204426
460   0  1   1.229543235146  10.191451146109  12.650676987253
461   0  1   1.229561525913  13.046939681547   4.084852779897
462   0  1   1.229548006183  13.046855903299   6.940065558289
463   0  1   1.229543235146  13.046824546755   9.795303586607
464   0  1   1.229544956349  13.046866151031  12.650718591528
465   0  1  -0.198073779751 -14.078486220249   5.512493094132
466   0  1  -0.198073779751 -14.078486220249   2.657233494385
467   0  1  -0.198073779751  11.619159550507  14.078486220249
468   0  1  -0.198073779751  11.619067617359  11.222920057857
469   0  1   4.084645365880   4.480792925383   9.795187907313
470   0  1   4.084814835183   4.480962394686  12.650756878158
471   0  1  -3.053365094857   3.053365094857  14.078486220249
472   0  1   4.084248293101   7.335075977361   6.938928417858
473   0  1   4.084616717281   7.335872297999   9.794976685520
474   0  1   4.084779098786   7.336181198835  12.650693961397
475   0  1  -3.053330736378   3.053330736378  11.223124176147
476   0  1   4.084645365880  10.191335466816   4.084645365880
477   0  1   4.084616717281  10.191124245023   6.939724738496
478   0  1   4.084693325521  10.191205753877   9.795058194374
479   0  1   4.084773401102  10.191440792595  12.650675726910
480   0  1   4.084814835183  13.046904437661   4.084814835183
481   0  1   4.084779098786  13.046841520900   6.940033639332
482   0  1   4.084773401102  13.046823286413   9.795293233092
483   0  1   4.084783694626  13.046865918476  12.650718358973
484   0  1  -0.198073779751  11.619001615138   8.367557696995
485   0  1  -0.198073779751  11.619135076573   5.512398568297
486   0  1  -0.198073779751  11.619322132052   2.657208390791
487   0  1  -0.198073779751   8.763858320800  14.078486220249
488   0  1   6.938928417858   4.480395852604   6.938928417858
489   0  1   6.939724738496   4.480764276783   9.794976685520
490   0  1   6.940033639332   4.480926658289  12.650693961397
491   0  1   6.938928417858   7.335075977361   4.084248293101
492   0  1   6.938768265872   7.334915825374   6.938768265872
493   0  1   6.939686889901   7.335834449403   9.794916101491
494   0  1   6.939997782490   7.336145341992  12.650672179920
495   0  1   6.939724738496  10.191124245023   4.084616717281
496   0  1   6.939686889901  10.191063660994   6.939686889901
497   0  1   6.939863467639  10.191209560947   9.795062001445
498   0  1   6.940006403071  10.191429901248  12.650676152747
499   0  1  -5.908553683710 -14.078486220249  11.223004536325
500   0  1   6.940033639332  13.046841520900   4.084779098786
501   0  1   6.939997782490  13.046819739422   6.939997782490
502   0  1   6.940006403071  13.046823712249   9.795282341746
503   0  1   6.940035309945  13.046867254029  12.650719694527
504   0  1  -0.198073779751   8.763705256497  11.222854055636
505   0  1  -0.198073779751   8.763257329777   8.367109770274
506   0  1  -0.198073779751   5.908640653635  14.078486220249
507   0  1  -5.908551868123 -14.078486220249   8.367672003434
508   0  1   9.795187907313   4.480792925383   4.084645365880
509   0  1   9.794976685520   4.480764276783   6.939724738496
510   0  1   9.795058194374   4.480840885024   9.795058194374
511   0  1   9.795293233092   4.480920960605  12.650675726910
512   0  1  -5.908577818895 -14.078486220249   5.512430259392
513   0  1   9.794976685520   7.335872297999   4.084616717281
514   0  1   9.794916101491   7.335834449403   6.939686889901
515   0  1   9.795062001445   7.336011027142   9.795062001445
516   0  1   9.795282341746   7.336153962573  12.650676152747
517   0  1  -5.908620399598 -14.078486220249   2.657188679907
518   0  1   9.795058194374  10.191205753877   4.084693325521
519   0  1   9.795062001445  10.191209560947   6.939863467639
520   0  1   9.795115986429  10.191263545931   9.795115986429
521   0  1   9.795290127838  10.191437687341  12.650687344601
522   0  1  -5.908553683710  11.619152095828  14.078486220249
523   0  1   9.795293233092  13.046823286413   4.084773401102
524   0  1   9.795282341746  13.046823712249   6.940006403071
525   0  1   9.795290127838  13.046834904104   9.795290127838
526   0  1   9.795336040233  13.046873973041  12.650726413538
527   0  1  -0.198073779751   5.908546127799  11.222987517070
528   0  1  -0.198073779751   3.053381053888  14.078486220249
529   0  1  -5.908520367432  11.619066507516  11.222918948014
530   0  1  12.650756878158   4.480962394686   4.084814835183
531   0  1  12.650693961397   4.480926658289   6.940033639332
532   0  1  12.650675726910   4.480920960605   9.795293233092
533   0  1  12.650718358973   4.480931254129  12.650718358973
534   0  1  -5.908466423339  11.618982589815   8.367524513061
535   0  1  12.650693961397   7.336181198835   4.084779098786
536   0  1  12.650672179920   7.336145341992   6.939997782490
537   0  1  12.650676152747   7.336153962573   9.795282341746
538   0  1  12.650719694527   7.336182869448  12.650719694527
539   0  1  -5.908464189086  11.619038246491   5.512316629583
540   0  1  12.650675726910  10.191440792595   4.084773401102
541   0  1  12.650676152747  10.191429901248   6.940006403071
542   0  1  12.650687344601  10.191437687341   9.795290127838
543   0  1  12.650726413538  10.191483599736  12.650726413538
544   0  1  -5.908518364808  11.619108898865   2.657138476096
545   0  1  12.650718358973  13.046865918476   4.084783694626
546   0  1  12.650719694527  13.046867254029   6.940035309945
547   0  1  12.650726413538  13.046873973041   9.795336040233
548   0  1  -0.198073779751   3.053355950294  11.223174572549
549   0  1  -3.053313152328 -14.078486220249  14.078486220249
550   0  1  -5.908551868123   8.763819562937  14.078486220249
551   0  1 -13.046904437661   4.480962394686   4.084814835183
552   0  1 -13.046841520900   4.480926658289   6.940033639332
553   0  1 -13.046823286413   4.480920960605   9.795293233092
554   0  1 -13.046865918476   4.480931254129  12.650718358973
555   0  1  -5.908466423339   8.763672072564  11.222835030312
556   0  1 -13.046841520900   7.336181198835   4.084779098786
557   0  1 -13.046819739422   7.336145341992   6.939997782490
558   0  1 -13.046823712249   7.336153962573   9.795282341746
559   0  1 -13.046867254029   7.336182869448  12.650719694527
560   0  1  -5.908210596523   8.763233744124   8.367086184622
561   0  1 -13.046823286413  10.191440792595   4.084773401102
562   0  1 -13.046823712249  10.191429901248   6.940006403071
563   0  1 -13.046834904104  10.191437687341   9.795290127838
564   0  1  -5.907931830749   8.763083126398   5.511784271247
565   0  1 -13.046865918476  13.046865918476   4.084783694626
566   0  1 -13.046867254029  13.046867254029   6.940035309945
567   0  1  -3.053312516006 -14.078486220249  11.223009570990
568   0  1  -3.053317672657 -14.078486220249   8.367699041846
569   0  1  -3.053336239410 -14.078486220249   5.512472840096
570   0  1  -3.053365094857 -14.078486220249   2.657217535354
571   0  1  -3.053312516006  11.619157130492  14.078486220249
572   0  1  -5.908054219059   8.763262632121   2.656934116400
573   0  1 -10.191335466816   4.480792925383   4.084645365880
574   0  1 -10.191124245023   4.480764276783   6.939724738496
575   0  1 -10.191205753877   4.480840885024   9.795058194374
576   0  1 -10.191440792595   4.480920960605  12.650675726910
577   0  1  -5.908577818895   5.908577818895  14.078486220249
578   0  1 -10.191124245023   7.335872297999   4.084616717281
579   0  1 -10.191063660994   7.335834449403   6.939686889901
580   0  1 -10.191209560947   7.336011027142   9.795062001445
581   0  1 -10.191429901248   7.336153962573  12.650676152747
582   0  1  -5.908464189086   5.908464189086  11.222890686988
583   0  1 -10.191205753877  10.191205753877   4.084693325521
584   0  1 -10.191209560947  10.191209560947   6.939863467639
585   0  1 -10.191263545931  10.191263545931   9.795115986429
586   0  1 -10.191437687341  10.191437687341  12.650687344601
587   0  1  -5.907931830749   5.907931830749   8.366935566896
588   0  1 -10.191440792595  13.046823286413   4.084773401102
589   0  1 -10.191429901248  13.046823712249   6.940006403071
590   0  1 -10.191437687341  13.046834904104   9.795290127838
591   0  1  -3.053298000549  11.619066789034  11.222919229532
592   0  1  -3.053278320153  11.618996014670   8.367547024866
593   0  1  -3.053286035598  11.619108898865   5.512370805306
594   0  1  -3.053330736378  11.619271735649   2.657183176876
595   0  1  -7.335075977361   4.480395852604   6.938928417858
596   0  1  -7.335872297999   4.480764276783   9.794976685520
597   0  1  -7.336181198835   4.480926658289  12.650693961397
598   0  1  -7.335075977361   7.335075977361   4.084248293101
599   0  1  -7.334915825374   7.334915825374   6.938768265872
600   0  1  -7.335834449403   7.335834449403   9.794916101491
601   0  1  -7.336145341992   7.336145341992  12.650672179920
602   0  1  -5.908620399598   3.053336239410  14.078486220249
603   0  1  -7.335872297999  10.191124245023   4.084616717281
604   0  1  -7.335834449403  10.191063660994   6.939686889901
605   0  1  -7.336011027142  10.191209560947   9.795062001445
606   0  1  -7.336153962573  10.191429901248  12.650676152747
607   0  1  -5.908518364808   3.053286035598  11.222961339362
608   0  1  -7.336181198835  13.046841520900   4.084779098786
609   0  1  -7.336145341992  13.046819739422   6.939997782490
610   0  1  -7.336153962573  13.046823712249   9.795282341746
611   0  1  -7.336182869448  13.046867254029  12.650719694527
612   0  1  -3.053317672657   8.763846601349  14.078486220249
613   0  1  -3.053278320153   8.763694584369  11.222848455167
614   0  1  -3.053160541252   8.763247985844   8.367100426341
615   0  1  -3.053081675902   8.763262632121   5.511906659556
616   0  1  -4.480792925383   4.480792925383   9.795187907313
617   0  1  -4.480962394686   4.480962394686  12.650756878158
618   0  1  -4.480395852604   7.335075977361   6.938928417858
619   0  1  -4.480764276783   7.335872297999   9.794976685520
620   0  1  -4.480926658289   7.336181198835  12.650693961397
621   0  1  -4.480792925383  10.191335466816   4.084645365880
622   0  1  -4.480764276783  10.191124245023   6.939724738496
623   0  1  -4.480840885024  10.191205753877   9.795058194374
624   0  1  -4.480920960605  10.191440792595  12.650675726910
625   0  1  -4.480962394686  13.046904437661   4.084814835183
626   0  1  -4.480926658289  13.046841520900   6.940033639332
627   0  1  -4.480920960605  13.046823286413   9.795293233092
628   0  1  -4.480931254129  13.046865918476  12.650718358973
629   0  1  -3.053336239410   5.908620399598  14.078486220249
630   0  1  -3.053286035598   5.908518364808  11.222961339362
631   0  1  -1.625657940413   4.480866722904   9.795309837457
632   0  1  -1.625709085416   4.481000339400  12.650792122045
633   0  1  -1.625646559316   7.335910756861   9.795014003190
634   0  1  -1.625695565686   7.336213117792  12.650708343796
635   0  1  -8.763819843405 -14.078486220249  11.223003996554
636   0  1  -1.625657940413  10.191457396960   4.084719163402
637   0  1  -1.625646559316  10.191161562693   6.939763197358
638   0  1  -1.625666248613  10.191210763929   9.795063204426
639   0  1  -1.625690794648  10.191451146109  12.650676987253
640   0  1  -8.763800973434 -14.078486220249   8.367653413932
641   0  1  -1.625709085416  13.046939681547   4.084852779897
642   0  1  -1.625695565686  13.046855903299   6.940065558289
643   0  1  -1.625690794648  13.046824546755   9.795303586607
644   0  1  -1.625692515851  13.046866151031  12.650718591528
645   0  1   2.657183176876   3.053330736378  11.223124176147
646   0  1   2.657217535354   3.053365094857  14.078486220249
647   0  1   2.657138476096   5.908518364808  11.222961339362
648   0  1   2.657188679907   5.908620399598  14.078486220249
649   0  1   2.657012981749   8.763247985844   8.367100426341
650   0  1   2.657130760651   8.763694584369  11.222848455167
651   0  1   2.657170113154   8.763846601349  14.078486220249
652   0  1   2.657183176876  11.619271735649   2.657183176876
653   0  1   2.657138476096  11.619108898865   5.512370805306
654   0  1   2.657130760651  11.618996014670   8.367547024866
655   0  1   2.657150441046  11.619066789034  11.222919229532
656   0  1   2.657164956503  11.619157130492  14.078486220249
657   0  1   2.657217535354 -14.078486220249   2.657217535354
658   0  1   2.657188679907 -14.078486220249   5.512472840096
659   0  1   2.657170113154 -14.078486220249   8.367699041846
660   0  1   2.657164956503 -14.078486220249  11.223009570990
661   0  1   2.657165592825 -14.078486220249  14.078486220249
662   0  1   5.512370805306   3.053286035598  11.222961339362
663   0  1   5.512472840096   3.053336239410  14.078486220249
664   0  1   5.511784271247   5.907931830749   8.366935566896
665   0  1   5.512316629583   5.908464189086  11.222890686988
666   0  1   5.512430259392   5.908577818895  14.078486220249
667   0  1   5.511784271247   8.763083126398   5.511784271247
668   0  1   5.512063037021   8.763233744124   8.367086184622
669   0  1   5.512318863836   8.763672072564  11.222835030312
670   0  1   5.512404308620   8.763819562937  14.078486220249
671   0  1   5.512370805306  11.619108898865   2.657138476096
672   0  1   5.512316629583  11.619038246491   5.512316629583
673   0  1   5.512318863836  11.618982589815   8.367524513061
674   0  1   5.512372807930  11.619066507516  11.222918948014
675   0  1   5.512406124207  11.619152095828  14.078486220249
676   0  1   5.512472840096 -14.078486220249   2.657188679907
677   0  1   5.512430259392 -14.078486220249   5.512430259392
678   0  1   5.512404308620 -14.078486220249   8.367672003434
679   0  1   5.512406124207 -14.078486220249  11.223004536325
680   0  1   5.512412086242 -14.078486220249  14.078486220249
681   0  1   8.367100426341   3.053160541252   8.367100426341
682   0  1   8.367547024866   3.053278320153  11.222848455167
683   0  1   8.367699041846   3.053317672657  14.078486220249
684   0  1   8.366935566896   5.907931830749   5.511784271247
685   0  1   8.367086184622   5.908210596523   8.367086184622
686   0  1   8.367524513061   5.908466423339  11.222835030312
687   0  1   8.367672003434   5.908551868123  14.078486220249
688   0  1   8.367100426341   8.763247985844   2.657012981749
689   0  1   8.367086184622   8.763233744124   5.512063037021
690   0  1   8.367109951763   8.763257511266   8.367109951763
691   0  1   8.367522082599   8.763669642102  11.222832680021
692   0  1   8.367653413932   8.763800973434  14.078486220249
693   0  1   8.367547024866  11.618996014670   2.657130760651
694   0  1   8.367524513061  11.618982589815   5.512318863836
695   0  1   8.367522082599  11.618980239524   8.367522082599
696   0  1   8.367619291074  11.619076286408  11.222928726905
697   0  1   8.367672283902  11.619151556057  14.078486220249
698   0  1   8.367699041846 -14.078486220249   2.657170113154
699   0  1   8.367672003434 -14.078486220249   5.512404308621
700   0  1   8.367653413932 -14.078486220249   8.367653413932
701   0  1   8.367672283902 -14.078486220249  11.223003996554
702   0  1  11.223124176147   3.053330736378   2.657183176876
703   0  1  11.222961339362   3.053286035598   5.512370805306
704   0  1  11.222848455167   3.053278320153   8.367547024866
705   0  1  11.222919229532   3.053298000548  11.222919229532
706   0  1  11.223009570990   3.053312516006  14.078486220249
707   0  1  11.222961339362   5.908518364808   2.657138476096
708   0  1  11.222890686988   5.908464189086   5.512316629583
709   0  1  11.222835030312   5.908466423339   8.367524513061
710   0  1  11.222918948014   5.908520367432  11.222918948014
711   0  1  11.223004536325   5.908553683710  14.078486220249
712   0  1  11.222848455167   8.763694584369   2.657130760651
713   0  1  11.222835030312   8.763672072564   5.512318863836
714   0  1  11.222832680021   8.763669642102   8.367522082599
715   0  1  11.222928726905   8.763766850576  11.222928726905
716   0  1  11.223003996554   8.763819843405  14.078486220249
717   0  1  11.222919229532  11.619066789034   2.657150441046
718   0  1  11.222918948014  11.619066507516   5.512372807930
719   0  1  11.222928726905  11.619076286408   8.367619291074
720   0  1  11.222965446960  11.619113006463  11.222965446960
721   0  1  11.223009570990 -14.078486220249   2.657164956503
722   0  1  11.223004536325 -14.078486220249   5.512406124207
723   0  1  11.223003996554 -14.078486220249   8.367672283902
724   0  1  14.078486220249   3.053365094857   2.657217535354
725   0  1  14.078486220249   3.053336239410   5.512472840096
726   0  1  14.078486220249   3.053317672657   8.367699041846
727   0  1  14.078486220249   3.053312516006  11.223009570990
728   0  1  14.078486220249   3.053313152328  14.078486220249
729   0  1  14.078486220249   5.908620399598   2.657188679907
730   0  1  14.078486220249   5.908577818895   5.512430259392
731   0  1  14.078486220249   5.908551868123   8.367672003434
732   0  1  14.078486220249   5.908553683710  11.223004536325
733   0  1  14.078486220249   8.763846601349   2.657170113154
734   0  1  14.078486220249   8.763819562937   5.512404308621
735   0  1  14.078486220249   8.763800973434   8.367653413932
736   0  1  14.078486220249   8.763819843405  11.223003996554
737   0  1  14.078486220249  11.619157130492   2.657164956503
738   0  1  14.078486220249  11.619152095828   5.512406124207
739   0  1  14.078486220249  11.619151556057   8.367672283902
740   0  1  14.078486220249 -14.078486220249   2.657165592825
741   0  1  14.078486220249 -14.078486220249   5.512412086242
742   0  1 -11.619271735649   3.053330736378   2.657183176876
743   0  1 -11.619108898865   3.053286035598   5.512370805306
744   0  1 -11.618996014670   3.053278320153   8.367547024866
745   0  1 -11.619066789034   3.053298000548  11.222919229532
746   0  1 -11.619157130492   3.053312516006  14.078486220249
747   0  1 -11.619108898865   5.908518364808   2.657138476096
748   0  1 -11.619038246491   5.908464189086   5.512316629583
749   0  1 -11.618982589815   5.908466423339   8.367524513061
750   0  1 -11.619066507516   5.908520367432  11.222918948014
751   0  1 -11.619152095828   5.908553683710  14.078486220249
752   0  1 -11.618996014670   8.763694584369   2.657130760651
753   0  1 -11.618982589815   8.763672072564   5.512318863836
754   0  1 -11.618980239524   8.763669642102   8.367522082599
755   0  1 -11.619076286408   8.763766850576  11.222928726905
756   0  1 -11.619151556057   8.763819843405  14.078486220249
757   0  1 -11.619066789034  11.619066789034   2.657150441046
758   0  1 -11.619066507516  11.619066507516   5.512372807930
759   0  1 -11.619076286408  11.619076286408   8.367619291074
760   0  1 -11.619113006463  11.619113006463  11.222965446960
761   0  1 -11.619157130492 -14.078486220249   2.657164956503
762   0  1 -11.619152095828 -14.078486220249   5.512406124207
763   0  1 -11.619151556057 -14.078486220249   8.367672283902
764   0  1  -8.763262632121   3.053081675902   5.511906659556
765   0  1  -8.763247985844   3.053160541252   8.367100426341
766   0  1  -8.763694584369   3.053278320153  11.222848455167
767   0  1  -8.763846601349   3.053317672657  14.078486220249
768   0  1  -8.763262632121   5.908054219059   2.656934116400
769   0  1  -8.763083126398   5.907931830749   5.511784271247
770   0  1  -8.763233744124   5.908210596523   8.367086184622
771   0  1  -8.763672072564   5.908466423339  11.222835030312
772   0  1  -8.763819562937   5.908551868123  14.078486220249
773   0  1  -8.763247985844   8.763247985844   2.657012981749
774   0  1  -8.763233744124   8.763233744124   5.512063037021
775   0  1  -8.763257511266   8.763257511266   8.367109951763
776   0  1  -8.763669642102   8.763669642102  11.222832680021
777   0  1  -8.763800973434   8.763800973434  14.078486220249
778   0  1  -8.763694584369  11.618996014670   2.657130760651
779   0  1  -8.763672072564  11.618982589815   5.512318863836
780   0  1  -8.763669642102  11.618980239524   8.367522082599
781   0  1  -8.763766850576  11.619076286408  11.222928726905
782   0  1  -8.763819843405  11.619151556057  14.078486220249
783   0  1  -8.763846601349 -14.078486220249   2.657170113154
784   0  1  -8.763819562937 -14.078486220249   5.512404308621
785   0  1  -0.198073779751 -14.078486220249  -0.198073779751
786   0  1  -0.198073779751 -14.078486220249  -3.053381053888
787   0  1  -0.198073779751 -14.078486220249  -5.908640653635
788   0  1   1.229561525913   4.481000339400 -13.046939681547
789   0  1   1.229510380910   4.480866722904 -10.191457396960
790   0  1   1.229548006183   7.336213117792 -13.046855903299
791   0  1   1.229498999813   7.335910756861 -10.191161562693
792   0  1   1.229543235146  10.191451146109 -13.046824546756
793   0  1   1.229518689110  10.191210763929 -10.191210763929
794   0  1   1.229498999813  10.191161562693  -7.335910756861
795   0  1   1.229510380910  10.191457396960  -4.480866722904
796   0  1   1.229544956349  13.046866151031 -13.046866151031
797   0  1   1.229543235146  13.046824546755 -10.191451146109
798   0  1   1.229548006183  13.046855903299  -7.336213117792
799   0  1   1.229561525913  13.046939681547  -4.481000339400
800   0  1   1.229577757809  13.046999708565  -1.625725317311
801   0  1  -0.198073779751 -14.078486220249  -8.763858320800
802   0  1  -0.198073779751 -14.078486220249 -11.619159550507
803   0  1  -0.198073779751  11.619406285338  -0.198073779751
804   0  1  -0.198073779751  11.619322132052  -3.053355950294
805   0  1   4.084814835183   4.480962394686 -13.046904437661
806   0  1   4.084645365880   4.480792925383 -10.191335466816
807   0  1   4.084779098786   7.336181198835 -13.046841520900
808   0  1   4.084616717281   7.335872297999 -10.191124245023
809   0  1   4.084248293101   7.335075977361  -7.335075977361
810   0  1   4.084773401102  10.191440792595 -13.046823286413
811   0  1   4.084693325521  10.191205753877 -10.191205753877
812   0  1   4.084616717281  10.191124245023  -7.335872297999
813   0  1   4.084645365880  10.191335466816  -4.480792925383
814   0  1   4.084719163402  10.191457396960  -1.625657940413
815   0  1   4.084783694626  13.046865918476 -13.046865918476
816   0  1   4.084773401102  13.046823286413 -10.191440792595
817   0  1   4.084779098786  13.046841520900  -7.336181198835
818   0  1   4.084814835183  13.046904437661  -4.480962394686
819   0  1   4.084852779897  13.046939681547  -1.625709085416
820   0  1  -0.198073779751  11.619135076573  -5.908546127799
821   0  1  -0.198073779751  11.619001615138  -8.763705256497
822   0  1  -0.198073779751  11.619067617359 -11.619067617359
823   0  1   6.940033639332   4.480926658289 -13.046841520900
824   0  1   6.939724738496   4.480764276783 -10.191124245023
825   0  1   6.938928417858   4.480395852604  -7.335075977361
826   0  1   6.939997782490   7.336145341992 -13.046819739422
827   0  1   6.939686889901   7.335834449403 -10.191063660994
828   0  1   6.938768265872   7.334915825374  -7.334915825374
829   0  1   6.938928417858   7.335075977361  -4.480395852604
830   0  1   6.940006403071  10.191429901248 -13.046823712249
831   0  1   6.939863467639  10.191209560947 -10.191209560947
832   0  1   6.939686889901  10.191063660994  -7.335834449403
833   0  1   6.939724738496  10.191124245023  -4.480764276783
834   0  1   6.939763197358  10.191161562693  -1.625646559316
835   0  1   6.940035309945  13.046867254029 -13.046867254029
836   0  1   6.940006403071  13.046823712249 -10.191429901248
837   0  1   6.939997782490  13.046819739422  -7.336145341992
838   0  1   6.940033639332  13.046841520900  -4.480926658289
839   0  1   6.940065558289  13.046855903299  -1.625695565686
840   0  1  -0.198073779751   8.763257329777  -8.763257329777
841   0  1  -0.198073779751   8.763705256497 -11.619001615138
842   0  1   9.795293233092   4.480920960605 -13.046823286413
843   0  1   9.795058194374   4.480840885024 -10.191205753877
844   0  1   9.794976685520   4.480764276783  -7.335872297999
845   0  1   9.795187907313   4.480792925383  -4.480792925383
846   0  1   9.795309837457   4.480866722904  -1.625657940413
847   0  1   9.795282341746   7.336153962573 -13.046823712249
848   0  1   9.795062001445   7.336011027142 -10.191209560947
849   0  1   9.794916101491   7.335834449403  -7.335834449403
850   0  1   9.794976685520   7.335872297999  -4.480764276783
851   0  1   9.795014003190   7.335910756861  -1.625646559316
852   0  1   9.795290127838  10.191437687341 -13.046834904104
853   0  1   9.795115986429  10.191263545931 -10.191263545931
854   0  1   9.795062001445  10.191209560947  -7.336011027142
855   0  1   9.795058194374  10.191205753877  -4.480840885024
856   0  1   9.795063204426  10.191210763929  -1.625666248613
857   0  1   9.795290127838  13.046834904104 -10.191437687341
858   0  1   9.795282341746  13.046823712249  -7.336153962573
859   0  1   9.795293233092  13.046823286413  -4.480920960605
860   0  1   9.795303586607  13.046824546755  -1.625690794648
861   0  1  -0.198073779751   5.908546127799 -11.619135076573
862   0  1  12.650718358973   4.480931254129 -13.046865918476
863   0  1  12.650675726910   4.480920960605 -10.191440792595
864   0  1  12.650693961397   4.480926658289  -7.336181198835
865   0  1  12.650756878158   4.480962394686  -4.480962394686
866   0  1  12.650792122045   4.481000339400  -1.625709085416
867   0  1  12.650719694527   7.336182869448 -13.046867254029
868   0  1  12.650676152747   7.336153962573 -10.191429901248
869   0  1  12.650672179920   7.336145341992  -7.336145341992
870   0  1  12.650693961397   7.336181198835  -4.480926658289
871   0  1  12.650708343796   7.336213117792  -1.625695565686
872   0  1  12.650687344601  10.191437687341 -10.191437687341
873   0  1  12.650676152747  10.191429901248  -7.336153962573
874   0  1  12.650675726910  10.191440792595  -4.480920960605
875   0  1  12.650676987253  10.191451146109  -1.625690794648
876   0  1  12.650719694527  13.046867254029  -7.336182869448
877   0  1  12.650718358973  13.046865918476  -4.480931254129
878   0  1  12.650718591528  13.046866151031  -1.625692515851
879   0  1  -0.198073779751   3.053355950294 -11.619322132052
880   0  1  -3.053381053888 -14.078486220249  -0.198073779751
881   0  1 -13.046865918476   4.480931254129 -13.046865918476
882   0  1 -13.046823286413   4.480920960605 -10.191440792595
883   0  1 -13.046841520900   4.480926658289  -7.336181198835
884   0  1 -13.046904437661   4.480962394686  -4.480962394686
885   0  1 -13.046939681547   4.481000339400  -1.625709085416
886   0  1 -13.046867254029   7.336182869448 -13.046867254029
887   0  1 -13.046823712249   7.336153962573 -10.191429901248
888   0  1 -13.046819739422   7.336145341992  -7.336145341992
889   0  1 -13.046841520900   7.336181198835  -4.480926658289
890   0  1 -13.046855903299   7.336213117792  -1.625695565686
891   0  1 -13.046834904104  10.191437687341 -10.191437687341
892   0  1 -13.046823712249  10.191429901248  -7.336153962573
893   0  1 -13.046823286413  10.191440792595  -4.480920960605
894   0  1 -13.046824546756  10.191451146109  -1.625690794648
895   0  1 -13.046867254029  13.046867254029  -7.336182869448
896   0  1 -13.046865918476  13.046865918476  -4.480931254129
897   0  1 -13.046866151031  13.046866151031  -1.625692515851
898   0  1  -3.053365094857 -14.078486220249  -3.053365094857
899   0  1  -3.053336239410 -14.078486220249  -5.908620399598
900   0  1  -3.053317672657 -14.078486220249  -8.763846601349
901   0  1  -3.053312516006 -14.078486220249 -11.619157130492
902   0  1  -3.053355950294  11.619322132052  -0.198073779751
903   0  1 -10.191440792595   4.480920960605 -13.046823286413
904   0  1 -10.191205753877   4.480840885024 -10.191205753877
905   0  1 -10.191124245023   4.480764276783  -7.335872297999
906   0  1 -10.191335466816   4.480792925383  -4.480792925383
907   0  1 -10.191457396960   4.480866722904  -1.625657940413
908   0  1 -10.191429901248   7.336153962573 -13.046823712249
909   0  1 -10.191209560947   7.336011027142 -10.191209560947
910   0  1 -10.191063660994   7.335834449403  -7.335834449403
911   0  1 -10.191124245023   7.335872297999  -4.480764276783
912   0  1 -10.191161562693   7.335910756861  -1.625646559316
913   0  1 -10.191437687341  10.191437687341 -13.046834904104
914   0  1 -10.191263545931  10.191263545931 -10.191263545931
915   0  1 -10.191209560947  10.191209560947  -7.336011027142
916   0  1 -10.191205753877  10.191205753877  -4.480840885024
917   0  1 -10.191210763929  10.191210763929  -1.625666248613
918   0  1 -10.191437687341  13.046834904104 -10.191437687341
919   0  1 -10.191429901248  13.046823712249  -7.336153962573
920   0  1 -10.191440792595  13.046823286413  -4.480920960605
921   0  1 -10.191451146109  13.046824546755  -1.625690794648
922   0  1  -3.053330736378  11.619271735649  -3.053330736378
923   0  1  -3.053286035598  11.619108898865  -5.908518364808
924   0  1  -3.053278320153  11.618996014670  -8.763694584369
925   0  1  -3.053298000549  11.619066789034 -11.619066789034
926   0  1  -7.336181198835   4.480926658289 -13.046841520900
927   0  1  -7.335872297999   4.480764276783 -10.191124245023
928   0  1  -7.335075977361   4.480395852604  -7.335075977361
929   0  1  -7.336145341992   7.336145341992 -13.046819739422
930   0  1  -7.335834449403   7.335834449403 -10.191063660994
931   0  1  -7.334915825374   7.334915825374  -7.334915825374
932   0  1  -7.335075977361   7.335075977361  -4.480395852604
933   0  1  -7.336153962573  10.191429901248 -13.046823712249
934   0  1  -7.336011027142  10.191209560947 -10.191209560947
935   0  1  -7.335834449403  10.191063660994  -7.335834449403
936   0  1  -7.335872297999  10.191124245023  -4.480764276783
937   0  1  -7.335910756861  10.191161562693  -1.625646559316
938   0  1  -7.336182869448  13.046867254029 -13.046867254029
939   0  1  -7.336153962573  13.046823712249 -10.191429901248
940   0  1  -7.336145341992  13.046819739422  -7.336145341992
941   0  1  -7.336181198835  13.046841520900  -4.480926658289
942   0  1  -7.336213117792  13.046855903299  -1.625695565686
943   0  1  -3.053081675902   8.763262632121  -5.908054219059
944   0  1  -3.053160541252   8.763247985844  -8.763247985844
945   0  1  -4.480962394686   4.480962394686 -13.046904437661
946   0  1  -4.480792925383   4.480792925383 -10.191335466816
947   0  1  -4.480926658289   7.336181198835 -13.046841520900
948   0  1  -4.480764276783   7.335872297999 -10.191124245023
949   0  1  -4.480395852604   7.335075977361  -7.335075977361
950   0  1  -4.480920960605  10.191440792595 -13.046823286413
951   0  1  -4.480840885024  10.191205753877 -10.191205753877
952   0  1  -4.480764276783  10.191124245023  -7.335872297999
953   0  1  -4.480792925383  10.191335466816  -4.480792925383
954   0  1  -4.480866722904  10.191457396960  -1.625657940413
955   0  1  -4.480931254129  13.046865918476 -13.046865918476
956   0  1  -4.480920960605  13.046823286413 -10.191440792595
957   0  1  -4.480926658289  13.046841520900  -7.336181198835
958   0  1  -4.480962394686  13.046904437661  -4.480962394686
959   0  1  -4.481000339400  13.046939681547  -1.625709085416
960   0  1  -3.053278320153   8.763694584369 -11.618996014670
961   0  1  -1.625709085416   4.481000339400 -13.046939681547
962   0  1  -1.625657940413   4.480866722904 -10.191457396960
963   0  1  -1.625695565686   7.336213117792 -13.046855903299
964   0  1  -1.625646559316   7.335910756861 -10.191161562693
965   0  1  -1.625690794648  10.191451146109 -13.046824546756
966   0  1  -1.625666248613  10.191210763929 -10.191210763929
967   0  1  -1.625646559316  10.191161562693  -7.335910756861
968   0  1  -1.625657940413  10.191457396960  -4.480866722904
969   0  1  -1.625692515851  13.046866151031 -13.046866151031
970   0  1  -1.625690794648  13.046824546755 -10.191451146109
971   0  1  -1.625695565686  13.046855903299  -7.336213117792
972   0  1  -1.625709085416  13.046939681547  -4.481000339400
973   0  1  -1.625725317311  13.046999708565  -1.625725317311
974   0  1   2.657183176876   3.053330736378 -11.619271735649
975   0  1   2.657138476096   5.908518364808 -11.619108898865
976   0  1   2.656934116400   5.908054219059  -8.763262632121
977   0  1   2.657130760651   8.763694584369 -11.618996014670
978   0  1   2.657012981749   8.763247985844  -8.763247985844
979   0  1   2.656934116400   8.763262632121  -5.908054219059
980   0  1   2.657150441046  11.619066789034 -11.619066789034
981   0  1   2.657130760651  11.618996014670  -8.763694584369
982   0  1   2.657138476096  11.619108898865  -5.908518364808
983   0  1   2.657183176876  11.619271735649  -3.053330736378
984   0  1   2.657208390791  11.619322132052  -0.198073779751
985   0  1   2.657164956503 -14.078486220249 -11.619157130492
986   0  1   2.657170113154 -14.078486220249  -8.763846601349
987   0  1   2.657188679907 -14.078486220249  -5.908620399598
988   0  1   2.657217535354 -14.078486220249  -3.053365094857
989   0  1   2.657233494385 -14.078486220249  -0.198073779751
990   0  1   5.512370805306   3.053286035598 -11.619108898865
991   0  1   5.511906659556   3.053081675902  -8.763262632121
992   0  1   5.512316629583   5.908464189086 -11.619038246491
993   0  1   5.511784271247   5.907931830749  -8.763083126398
994   0  1   5.512318863836   8.763672072564 -11.618982589815
995   0  1   5.512063037021   8.763233744124  -8.763233744124
996   0  1   5.511784271247   8.763083126398  -5.907931830749
997   0  1   5.511906659556   8.763262632121  -3.053081675902
998   0  1   5.512372807930  11.619066507516 -11.619066507516
999   0  1   5.512318863836  11.618982589815  -8.763672072564
1000  0  1   5.512316629583  11.619038246491  -5.908464189086
1001  0  1   5.512370805306  11.619108898865  -3.053286035598
1002  0  1   5.512398568297  11.619135076573  -0.198073779751
1003  0  1   5.512406124207 -14.078486220249 -11.619152095828
1004  0  1   5.512404308620 -14.078486220249  -8.763819562937
1005  0  1   5.512430259392 -14.078486220249  -5.908577818895
1006  0  1   5.512472840096 -14.078486220249  -3.053336239410
1007  0  1   5.512493094132 -14.078486220249  -0.198073779751
1008  0  1   8.367547024866   3.053278320153 -11.618996014670
1009  0  1   8.367100426341   3.053160541252  -8.763247985844
1010  0  1   8.367524513061   5.908466423339 -11.618982589815
1011  0  1   8.367086184622   5.908210596523  -8.763233744124
1012  0  1   8.366935566896   5.907931830749  -5.907931830749
1013  0  1   8.367522082599   8.763669642102 -11.618980239524
1014  0  1   8.367109951763   8.763257511266  -8.763257511266
1015  0  1   8.367086184622   8.763233744124  -5.908210596523
1016  0  1   8.367100426341   8.763247985844  -3.053160541252
1017  0  1   8.367109770274   8.763257329777  -0.198073779751
1018  0  1   8.367619291074  11.619076286408 -11.619076286408
1019  0  1   8.367522082599  11.618980239524  -8.763669642102
1020  0  1   8.367524513061  11.618982589815  -5.908466423339
1021  0  1   8.367547024866  11.618996014670  -3.053278320153
1022  0  1   8.367557696995  11.619001615138  -0.198073779751
1023  0  1   8.367672283902 -14.078486220249 -11.619151556057
1024  0  1   8.367653413932 -14.078486220249  -8.763800973434
1025  0  1   8.367672003434 -14.078486220249  -5.908551868123
1026  0  1   8.367699041846 -14.078486220249  -3.053317672657
1027  0  1   8.367710761297 -14.078486220249  -0.198073779751
1028  0  1  11.222919229532   3.053298000548 -11.619066789034
1029  0  1  11.222848455167   3.053278320153  -8.763694584369
1030  0  1  11.222961339362   3.053286035598  -5.908518364808
1031  0  1  11.223124176147   3.053330736378  -3.053330736378
1032  0  1  11.223174572549   3.053355950294  -0.198073779751
1033  0  1  11.222918948014   5.908520367432 -11.619066507516
1034  0  1  11.222835030312   5.908466423339  -8.763672072564
1035  0  1  11.222890686988   5.908464189086  -5.908464189086
1036  0  1  11.222961339362   5.908518364808  -3.053286035598
1037  0  1  11.222987517070   5.908546127799  -0.198073779751
1038  0  1  11.222928726905   8.763766850576 -11.619076286408
1039  0  1  11.222832680021   8.763669642102  -8.763669642102
1040  0  1  11.222835030312   8.763672072564  -5.908466423339
1041  0  1  11.222848455167   8.763694584369  -3.053278320153
1042  0  1  11.222854055636   8.763705256497  -0.198073779751
1043  0  1  11.222965446960  11.619113006463 -11.619113006463
1044  0  1  11.222928726905  11.619076286408  -8.763766850576
1045  0  1  11.222918948014  11.619066507516  -5.908520367432
1046  0  1  11.222919229532  11.619066789034  -3.053298000548
1047  0  1  11.222920057857  11.619067617359  -0.198073779751
1048  0  1  11.223003996554 -14.078486220249  -8.763819843405
1049  0  1  11.223004536325 -14.078486220249  -5.908553683710
1050  0  1  11.223009570990 -14.078486220249  -3.053312516006
1051  0  1  11.223011991005 -14.078486220249  -0.198073779751
1052  0  1  14.078486220249   3.053312516006 -11.619157130492
1053  0  1  14.078486220249   3.053317672657  -8.763846601349
1054  0  1  14.078486220249   3.053336239410  -5.908620399598
1055  0  1  14.078486220249   3.053365094857  -3.053365094857
1056  0  1  14.078486220249   3.053381053888  -0.198073779751
1057  0  1  14.078486220249   5.908553683710 -11.619152095828
1058  0  1  14.078486220249   5.908551868123  -8.763819562937
1059  0  1  14.078486220249   5.908577818895  -5.908577818895
1060  0  1  14.078486220249   5.908620399598  -3.053336239410
1061  0  1  14.078486220249   5.908640653635  -0.198073779751
1062  0  1  14.078486220249   8.763819843405 -11.619151556057
1063  0  1  14.078486220249   8.763800973434  -8.763800973434
1064  0  1  14.078486220249   8.763819562937  -5.908551868123
1065  0  1  14.078486220249   8.763846601349  -3.053317672657
1066  0  1  14.078486220249   8.763858320800  -0.198073779751
1067  0  1  14.078486220249  11.619151556057  -8.763819843405
1068  0  1  14.078486220249  11.619152095828  -5.908553683710
1069  0  1  14.078486220249  11.619157130492  -3.053312516006
1070  0  1  14.078486220249  11.619159550507  -0.198073779751
1071  0  1  14.078486220249 -14.078486220249  -3.053313152328
1072  0  1  14.078486220249 -14.078486220249  -0.198073779751
1073  0  1 -11.619066789034   3.053298000548 -11.619066789034
1074  0  1 -11.618996014670   3.053278320153  -8.763694584369
1075  0  1 -11.619108898865   3.053286035598  -5.908518364808
1076  0  1 -11.619271735649   3.053330736378  -3.053330736378
1077  0  1 -11.619322132052   3.053355950294  -0.198073779751
1078  0  1 -11.619066507516   5.908520367432 -11.619066507516
1079  0  1 -11.618982589815   5.908466423339  -8.763672072564
1080  0  1 -11.619038246491   5.908464189086  -5.908464189086
1081  0  1 -11.619108898865   5.908518364808  -3.053286035598
1082  0  1 -11.619135076573   5.908546127799  -0.198073779751
1083  0  1 -11.619076286408   8.763766850576 -11.619076286408
1084  0  1 -11.618980239524   8.763669642102  -8.763669642102
1085  0  1 -11.618982589815   8.763672072564  -5.908466423339
1086  0  1 -11.618996014670   8.763694584369  -3.053278320153
1087  0  1 -11.619001615138   8.763705256497  -0.198073779751
1088  0  1 -11.619113006463  11.619113006463 -11.619113006463
1089  0  1 -11.619076286408  11.619076286408  -8.763766850576
1090  0  1 -11.619066507516  11.619066507516  -5.908520367432
1091  0  1 -11.619066789034  11.619066789034  -3.053298000548
1092  0  1 -11.619067617359  11.619067617359  -0.198073779751
1093  0  1 -11.619151556057 -14.078486220249  -8.763819843405
1094  0  1 -11.619152095828 -14.078486220249  -5.908553683710
1095  0  1 -11.619157130492 -14.078486220249  -3.053312516006
1096  0  1 -11.619159550507 -14.078486220249  -0.198073779751
1097  0  1  -8.763694584369   3.053278320153 -11.618996014670
1098  0  1  -8.763247985844   3.053160541252  -8.763247985844
1099  0  1  -8.763262632121   3.053081675902  -5.908054219059
1100  0  1  -8.763672072564   5.908466423339 -11.618982589815
1101  0  1  -8.763233744124   5.908210596523  -8.763233744124
1102  0  1  -8.763083126398   5.907931830749  -5.907931830750
1103  0  1  -8.763262632121   5.908054219059  -3.053081675902
1104  0  1  -8.763669642102   8.763669642102 -11.618980239524
1105  0  1  -8.763257511266   8.763257511266  -8.763257511266
1106  0  1  -8.763233744124   8.763233744124  -5.908210596523
1107  0  1  -8.763247985844   8.763247985844  -3.053160541252
1108  0  1  -8.763257329777   8.763257329777  -0.198073779751
1109  0  1  -8.763766850576  11.619076286408 -11.619076286408
1110  0  1  -8.763669642102  11.618980239524  -8.763669642102
1111  0  1  -8.763672072564  11.618982589815  -5.908466423339
1112  0  1  -8.763694584369  11.618996014670  -3.053278320153
1113  0  1  -8.763705256497  11.619001615138  -0.198073779751
1114  0  1  -8.763819843405 -14.078486220249 -11.619151556057
1115  0  1  -8.763800973434 -14.078486220249  -8.763800973434
1116  0  1  -8.763819562937 -14.078486220249  -5.908551868123
1117  0  1  -8.763846601349 -14.078486220249  -3.053317672657
1118  0  1  -8.763858320800 -14.078486220249  -0.198073779751
1119  0  1  -5.908518364808   3.053286035598 -11.619108898865
1120  0  1  -5.908054219059   3.053081675902  -8.763262632121
1121  0  1  -5.908464189086   5.908464189086 -11.619038246491
1122  0  1  -5.907931830749   5.907931830749  -8.763083126398
1123  0  1  -5.908466423339   8.763672072564 -11.618982589815
1124  0  1  -5.908210596523   8.763233744124  -8.763233744124
1125  0  1  -5.907931830749   8.763083126398  -5.907931830749
1126  0  1  -5.908054219059   8.763262632121  -3.053081675902
1127  0  1  -5.908520367432  11.619066507516 -11.619066507516
1128  0  1  -5.908466423339  11.618982589815  -8.763672072564
1129  0  1  -5.908464189086  11.619038246491  -5.908464189086
1130  0  1  -5.908518364808  11.619108898865  -3.053286035598
1131  0  1  -5.908546127799  11.619135076573  -0.198073779751
1132  0  1  -5.908553683710 -14.078486220249 -11.619152095828
1133  0  1  -5.908551868123 -14.078486220249  -8.763819562937
1134  0  1  -5.908577818895 -14.078486220249  -5.908577818895
1135  0  1  -5.908620399598 -14.078486220249  -3.053336239410
1136  0  1  -5.908640653635 -14.078486220249  -0.198073779751
1137  0  1  -3.053330736378   3.053330736378 -11.619271735649
1138  0  1  -3.053286035598   5.908518364808 -11.619108898865
1139  0  1  -3.053081675902   5.908054219059  -8.763262632121
1140  0  1   1.229577757809 -12.650852149062  -1.625725317311
1141  0  1  -1.625725317311 -12.650852149062  -1.625725317311
1142  0  1  -1.625725317311 -12.650852149062   1.229577757809
1143  0  1   1.229577757809 -12.650852149062   1.229577757809
1144  0  1   1.229577757809  13.046999708565   1.229577757809
1145  0  1   4.084719163402  10.191457396960   1.229510380910
1146  0  1   4.084852779897  13.046939681547   1.229561525913
1147  0  1   6.939763197358  10.191161562693   1.229498999813
1148  0  1   6.940065558289  13.046855903299   1.229548006183
1149  0  1   9.795309837457   4.480866722904   1.229510380910
1150  0  1   9.795014003190   7.335910756861   1.229498999813
1151  0  1   9.795063204426  10.191210763929   1.229518689110
1152  0  1   9.795303586607  13.046824546755   1.229543235146
1153  0  1  12.650792122045   4.481000339400   1.229561525913
1154  0  1  12.650708343796   7.336213117792   1.229548006183
1155  0  1  12.650676987253  10.191451146109   1.229543235146
1156  0  1  12.650718591528  13.046866151031   1.229544956349
1157  0  1 -13.046939681547   4.481000339400   1.229561525913
1158  0  1 -13.046855903299   7.336213117792   1.229548006183
1159  0  1 -13.046824546756  10.191451146109   1.229543235146
1160  0  1 -13.046866151031  13.046866151031   1.229544956349
1161  0  1 -10.191457396960   4.480866722904   1.229510380910
1162  0  1 -10.191161562693   7.335910756861   1.229498999813
1163  0  1 -10.191210763929  10.191210763929   1.229518689110
1164  0  1 -10.191451146109  13.046824546755   1.229543235146
1165  0  1  -7.335910756861  10.191161562693   1.229498999813
1166  0  1  -7.336213117792  13.046855903299   1.229548006183
1167  0  1  -4.480866722904  10.191457396960   1.229510380910
1168  0  1  -4.481000339400  13.046939681547   1.229561525913
1169  0  1  -1.625725317311  13.046999708565   1.229577757809
1170  0  1  -0.198073779751   0.198073779751  14.078486220249
1171  0  1   1.229561525913 -12.650792122045   4.084852779897
1172  0  1   1.229548006183 -12.650708343796   6.940065558289
1173  0  1   1.229543235146 -12.650676987253   9.795303586607
1174  0  1   1.229544956349 -12.650718591528  12.650718591528
1175  0  1  -1.625725317311   1.625725317311  12.650852149062
1176  0  1   1.229498999813  -9.795014003190   6.939763197358
1177  0  1   1.229518689110  -9.795063204426   9.795063204426
1178  0  1   1.229543235146  -9.795303586607  12.650676987253
1179  0  1   1.229498999813  -6.939763197358   9.795014003190
1180  0  1   1.229548006183  -6.940065558290  12.650708343796
1181  0  1   1.229561525913  -4.084852779897  12.650792122045
1182  0  1   1.229577757809  -1.229577757809  12.650852149062
1183  0  1  -4.481000339400   1.625709085416  12.650792122045
1184  0  1   4.084814835183 -12.650756878158   4.084814835183
1185  0  1   4.084779098786 -12.650693961397   6.940033639332
1186  0  1   4.084773401102 -12.650675726910   9.795293233092
1187  0  1   4.084783694626 -12.650718358973  12.650718358973
1188  0  1  -4.480866722904   1.625657940413   9.795309837457
1189  0  1   4.084645365880  -9.795187907313   4.084645365880
1190  0  1   4.084616717281  -9.794976685520   6.939724738496
1191  0  1   4.084693325521  -9.795058194374   9.795058194374
1192  0  1   4.084773401102  -9.795293233092  12.650675726910
1193  0  1   4.084616717281  -6.939724738496   9.794976685520
1194  0  1   4.084779098786  -6.940033639332  12.650693961397
1195  0  1   4.084645365880  -4.084645365880   9.795187907313
1196  0  1   4.084814835183  -4.084814835183  12.650756878158
1197  0  1   4.084852779897  -1.229561525913  12.650792122045
1198  0  1  -7.336213117792   1.625695565686  12.650708343796
1199  0  1   6.940033639332 -12.650693961397   4.084779098786
1200  0  1   6.939997782490 -12.650672179920   6.939997782490
1201  0  1   6.940006403071 -12.650676152747   9.795282341746
1202  0  1   6.940035309945 -12.650719694527  12.650719694527
1203  0  1  -7.335910756861   1.625646559316   9.795014003190
1204  0  1   6.939724738496  -9.794976685520   4.084616717281
1205  0  1   6.939686889901  -9.794916101491   6.939686889901
1206  0  1   6.939863467639  -9.795062001445   9.795062001445
1207  0  1   6.940006403071  -9.795282341746  12.650676152747
1208  0  1   6.938768265872  -6.938768265872   6.938768265872
1209  0  1   6.939686889901  -6.939686889901   9.794916101491
1210  0  1   6.939997782490  -6.939997782490  12.650672179920
1211  0  1   6.939724738496  -4.084616717281   9.794976685520
1212  0  1   6.940033639332  -4.084779098786  12.650693961397
1213  0  1   6.939763197358  -1.229498999813   9.795014003190
1214  0  1   6.940065558289  -1.229548006183  12.650708343796
1215  0  1 -10.191451146109   1.625690794648  12.650676987253
1216  0  1   9.795293233092 -12.650675726910   4.084773401102
1217  0  1   9.795282341746 -12.650676152747   6.940006403071
1218  0  1   9.795290127838 -12.650687344601   9.795290127838
1219  0  1   9.795336040233 -12.650726413538  12.650726413538
1220  0  1 -10.191210763929   1.625666248613   9.795063204426
1221  0  1   9.795058194374  -9.795058194374   4.084693325521
1222  0  1   9.795062001445  -9.795062001445   6.939863467639
1223  0  1   9.795115986429  -9.795115986429   9.795115986429
1224  0  1   9.795290127838  -9.795290127838  12.650687344601
1225  0  1 -10.191161562693   1.625646559316   6.939763197358
1226  0  1   9.794976685520  -6.939724738496   4.084616717281
1227  0  1   9.794916101491  -6.939686889901   6.939686889901
1228  0  1   9.795062001445  -6.939863467639   9.795062001445
1229  0  1   9.795282341746  -6.940006403071  12.650676152747
1230  0  1 -10.191457396960   1.625657940413   4.084719163402
1231  0  1   9.795187907313  -4.084645365880   4.084645365880
1232  0  1   9.794976685520  -4.084616717281   6.939724738496
1233  0  1   9.795058194374  -4.084693325521   9.795058194374
1234  0  1   9.795293233092  -4.084773401102  12.650675726910
1235  0  1 -13.046866151031   1.625692515851  12.650718591528
1236  0  1   9.795014003190  -1.229498999813   6.939763197358
1237  0  1   9.795063204426  -1.229518689110   9.795063204426
1238  0  1   9.795303586607  -1.229543235146  12.650676987253
1239  0  1 -13.046824546756   1.625690794648   9.795303586607
1240  0  1  12.650718358973 -12.650718358973   4.084783694626
1241  0  1  12.650719694527 -12.650719694527   6.940035309945
1242  0  1  12.650726413538 -12.650726413538   9.795336040233
1243  0  1 -13.046855903299   1.625695565686   6.940065558289
1244  0  1  12.650675726910  -9.795293233092   4.084773401102
1245  0  1  12.650676152747  -9.795282341746   6.940006403071
1246  0  1  12.650687344601  -9.795290127838   9.795290127838
1247  0  1  12.650726413538  -9.795336040233  12.650726413538
1248  0  1 -13.046939681547   1.625709085416   4.084852779897
1249  0  1  12.650693961397  -6.940033639332   4.084779098786
1250  0  1  12.650672179920  -6.939997782490   6.939997782490
1251  0  1  12.650676152747  -6.940006403071   9.795282341746
1252  0  1  12.650719694527  -6.940035309945  12.650719694527
1253  0  1  12.650718591528   1.625692515851  12.650718591528
1254  0  1  12.650756878158  -4.084814835183   4.084814835183
1255  0  1  12.650693961397  -4.084779098786   6.940033639332
1256  0  1  12.650675726910  -4.084773401102   9.795293233092
1257  0  1  12.650718358973  -4.084783694626  12.650718358973
1258  0  1  12.650676987253   1.625690794648   9.795303586607
1259  0  1  12.650792122045  -1.229561525913   4.084852779897
1260  0  1  12.650708343796  -1.229548006183   6.940065558289
1261  0  1  12.650676987253  -1.229543235146   9.795303586607
1262  0  1  12.650718591528  -1.229544956349  12.650718591528
1263  0  1  12.650708343796   1.625695565686   6.940065558289
1264  0  1 -13.046865918476 -12.650718358973   4.084783694626
1265  0  1 -13.046867254029 -12.650719694527   6.940035309945
1266  0  1 -13.046873973041 -12.650726413538   9.795336040233
1267  0  1  12.650792122045   1.625709085416   4.084852779897
1268  0  1 -13.046823286413  -9.795293233092   4.084773401102
1269  0  1 -13.046823712249  -9.795282341746   6.940006403071
1270  0  1 -13.046834904104  -9.795290127838   9.795290127838
1271  0  1 -13.046873973041  -9.795336040233  12.650726413538
1272  0  1   9.795303586607   1.625690794648  12.650676987253
1273  0  1 -13.046841520900  -6.940033639332   4.084779098786
1274  0  1 -13.046819739422  -6.939997782490   6.939997782490
1275  0  1 -13.046823712249  -6.940006403071   9.795282341746
1276  0  1 -13.046867254029  -6.940035309945  12.650719694527
1277  0  1   9.795063204426   1.625666248613   9.795063204426
1278  0  1 -13.046904437661  -4.084814835183   4.084814835183
1279  0  1 -13.046841520900  -4.084779098786   6.940033639332
1280  0  1 -13.046823286413  -4.084773401102   9.795293233092
1281  0  1 -13.046865918476  -4.084783694626  12.650718358973
1282  0  1   9.795014003190   1.625646559316   6.939763197358
1283  0  1 -13.046939681547  -1.229561525913   4.084852779897
1284  0  1 -13.046855903299  -1.229548006183   6.940065558289
1285  0  1 -13.046824546756  -1.229543235146   9.795303586607
1286  0  1 -13.046866151031  -1.229544956349  12.650718591528
1287  0  1   9.795309837457   1.625657940413   4.084719163402
1288  0  1 -10.191440792595 -12.650675726910   4.084773401102
1289  0  1 -10.191429901248 -12.650676152747   6.940006403071
1290  0  1 -10.191437687341 -12.650687344601   9.795290127838
1291  0  1 -10.191483599736 -12.650726413538  12.650726413538
1292  0  1   6.940065558289   1.625695565686  12.650708343796
1293  0  1 -10.191205753877  -9.795058194374   4.084693325521
1294  0  1 -10.191209560947  -9.795062001445   6.939863467639
1295  0  1 -10.191263545931  -9.795115986429   9.795115986429
1296  0  1 -10.191437687341  -9.795290127838  12.650687344601
1297  0  1   6.939763197358   1.625646559316   9.795014003190
1298  0  1 -10.191124245023  -6.939724738496   4.084616717281
1299  0  1 -10.191063660994  -6.939686889901   6.939686889901
1300  0  1 -10.191209560947  -6.939863467639   9.795062001445
1301  0  1 -10.191429901248  -6.940006403071  12.650676152747
1302  0  1 -10.191335466816  -4.084645365880   4.084645365880
1303  0  1 -10.191124245023  -4.084616717281   6.939724738496
1304  0  1 -10.191205753877  -4.084693325521   9.795058194374
1305  0  1 -10.191440792595  -4.084773401102  12.650675726910
1306  0  1 -10.191457396960  -1.229510380910   4.084719163402
1307  0  1 -10.191161562693  -1.229498999813   6.939763197358
1308  0  1 -10.191210763929  -1.229518689110   9.795063204426
1309  0  1 -10.191451146109  -1.229543235146  12.650676987253
1310  0  1   4.084852779897   1.625709085416  12.650792122045
1311  0  1  -7.336181198835 -12.650693961397   4.084779098786
1312  0  1  -7.336145341992 -12.650672179920   6.939997782490
1313  0  1  -7.336153962573 -12.650676152747   9.795282341746
1314  0  1  -7.336182869448 -12.650719694527  12.650719694527
1315  0  1   4.084719163402   1.625657940413   9.795309837457
1316  0  1  -7.335872297999  -9.794976685520   4.084616717281
1317  0  1  -7.335834449403  -9.794916101491   6.939686889901
1318  0  1  -7.336011027142  -9.795062001445   9.795062001445
1319  0  1  -7.336153962573  -9.795282341746  12.650676152747
1320  0  1  -7.335075977361  -6.938928417858   4.084248293101
1321  0  1  -7.334915825374  -6.938768265872   6.938768265872
1322  0  1  -7.335834449403  -6.939686889901   9.794916101491
1323  0  1  -7.336145341992  -6.939997782490  12.650672179920
1324  0  1  -7.335075977361  -4.084248293101   6.938928417858
1325  0  1  -7.335872297999  -4.084616717281   9.794976685520
1326  0  1  -7.336181198835  -4.084779098786  12.650693961397
1327  0  1  -7.335910756861  -1.229498999813   9.795014003190
1328  0  1  -7.336213117792  -1.229548006183  12.650708343796
1329  0  1   1.229577757809   1.625725317311  12.650852149062
1330  0  1  -4.480962394686 -12.650756878158   4.084814835183
1331  0  1  -4.480926658289 -12.650693961397   6.940033639332
1332  0  1  -4.480920960605 -12.650675726910   9.795293233092
1333  0  1  -4.480931254129 -12.650718358973  12.650718358973
1334  0  1  -4.480792925383  -9.795187907313   4.084645365880
1335  0  1  -4.480764276783  -9.794976685520   6.939724738496
1336  0  1  -4.480840885024  -9.795058194374   9.795058194374
1337  0  1  -4.480920960605  -9.795293233092  12.650675726910
1338  0  1  -4.480395852604  -6.938928417858   6.938928417858
1339  0  1  -4.480764276783  -6.939724738496   9.794976685520
1340  0  1  -4.480926658289  -6.940033639332  12.650693961397
1341  0  1  -4.480792925383  -4.084645365880   9.795187907313
1342  0  1  -4.480962394686  -4.084814835183  12.650756878158
1343  0  1  -4.480866722904  -1.229510380910   9.795309837457
1344  0  1  -4.481000339400  -1.229561525913  12.650792122045
1345  0  1  -0.198073779751   0.198073779751  11.223258725835
1346  0  1  -1.625709085416 -12.650792122045   4.084852779897
1347  0  1  -1.625695565686 -12.650708343796   6.940065558289
1348  0  1  -1.625690794648 -12.650676987253   9.795303586607
1349  0  1  -1.625692515851 -12.650718591528  12.650718591528
1350  0  1  -1.625657940413  -9.795309837457   4.084719163402
1351  0  1  -1.625646559316  -9.795014003190   6.939763197358
1352  0  1  -1.625666248613  -9.795063204426   9.795063204426
1353  0  1  -1.625690794648  -9.795303586607  12.650676987253
1354  0  1  -1.625646559316  -6.939763197358   9.795014003190
1355  0  1  -1.625695565686  -6.940065558290  12.650708343796
1356  0  1  -1.625657940413  -4.084719163402   9.795309837457
1357  0  1  -1.625709085416  -4.084852779897  12.650792122045
1358  0  1  -0.198073779751  -2.657233494385  14.078486220249
1359  0  1  -1.625725317311  -1.229577757809  12.650852149062
1360  0  1   2.657183176876 -11.223124176147   2.657183176876
1361  0  1   2.657138476096 -11.222961339362   5.512370805306
1362  0  1   2.657130760651 -11.222848455167   8.367547024866
1363  0  1   2.657150441046 -11.222919229532  11.222919229532
1364  0  1   2.657164956503 -11.223009570990  14.078486220249
1365  0  1   2.657012981749  -8.367100426341   8.367100426341
1366  0  1   2.657130760651  -8.367547024866  11.222848455167
1367  0  1   2.657170113154  -8.367699041846  14.078486220249
1368  0  1   2.657138476096  -5.512370805306  11.222961339362
1369  0  1   2.657188679907  -5.512472840096  14.078486220249
1370  0  1   2.657183176876  -2.657183176876  11.223124176147
1371  0  1   2.657217535354  -2.657217535354  14.078486220249
1372  0  1   2.657208390791   0.198073779751  11.223174572549
1373  0  1   2.657233494385   0.198073779751  14.078486220249
1374  0  1   5.512370805306 -11.222961339362   2.657138476096
1375  0  1   5.512316629583 -11.222890686988   5.512316629583
1376  0  1   5.512318863836 -11.222835030312   8.367524513061
1377  0  1   5.512372807930 -11.222918948014  11.222918948014
1378  0  1   5.512406124207 -11.223004536325  14.078486220249
1379  0  1   5.511784271247  -8.366935566896   5.511784271247
1380  0  1   5.512063037021  -8.367086184622   8.367086184622
1381  0  1   5.512318863836  -8.367524513061  11.222835030312
1382  0  1   5.512404308620  -8.367672003434  14.078486220249
1383  0  1   5.511784271247  -5.511784271247   8.366935566896
1384  0  1   5.512316629583  -5.512316629583  11.222890686988
1385  0  1   5.512430259392  -5.512430259392  14.078486220249
1386  0  1   5.512370805306  -2.657138476096  11.222961339362
1387  0  1   5.512472840096  -2.657188679907  14.078486220249
1388  0  1   5.512398568297   0.198073779751  11.222987517070
1389  0  1   5.512493094132   0.198073779751  14.078486220249
1390  0  1   8.367547024866 -11.222848455167   2.657130760651
1391  0  1   8.367524513061 -11.222835030312   5.512318863836
1392  0  1   8.367522082599 -11.222832680021   8.367522082599
1393  0  1   8.367619291074 -11.222928726905  11.222928726905
1394  0  1   8.367672283902 -11.223003996554  14.078486220249
1395  0  1   8.367100426341  -8.367100426341   2.657012981749
1396  0  1   8.367086184622  -8.367086184622   5.512063037021
1397  0  1   8.367109951763  -8.367109951763   8.367109951763
1398  0  1   8.367522082599  -8.367522082599  11.222832680021
1399  0  1   8.367653413932  -8.367653413932  14.078486220249
1400  0  1   8.366935566896  -5.511784271247   5.511784271247
1401  0  1   8.367086184622  -5.512063037021   8.367086184622
1402  0  1   8.367524513061  -5.512318863836  11.222835030312
1403  0  1   8.367672003434  -5.512404308621  14.078486220249
1404  0  1   8.367100426341  -2.657012981749   8.367100426341
1405  0  1   8.367547024866  -2.657130760651  11.222848455167
1406  0  1   8.367699041846  -2.657170113154  14.078486220249
1407  0  1   8.367109770274   0.198073779751   8.367109770274
1408  0  1   8.367557696995   0.198073779751  11.222854055636
1409  0  1   8.367710761297   0.198073779751  14.078486220249
1410  0  1  11.222919229532 -11.222919229532   2.657150441046
1411  0  1  11.222918948014 -11.222918948014   5.512372807930
1412  0  1  11.222928726905 -11.222928726905   8.367619291074
1413  0  1  11.222965446960 -11.222965446960  11.222965446960
1414  0  1  11.222848455167  -8.367547024866   2.657130760651
1415  0  1  11.222835030312  -8.367524513061   5.512318863836
1416  0  1  11.222832680021  -8.367522082599   8.367522082599
1417  0  1  11.222928726905  -8.367619291074  11.222928726905
1418  0  1  11.223003996554  -8.367672283902  14.078486220249
1419  0  1  11.222961339362  -5.512370805306   2.657138476096
1420  0  1  11.222890686988  -5.512316629583   5.512316629583
1421  0  1  11.222835030312  -5.512318863836   8.367524513061
1422  0  1  11.222918948014  -5.512372807930  11.222918948014
1423  0  1  11.223004536325  -5.512406124207  14.078486220249
1424  0  1  11.223124176147  -2.657183176876   2.657183176876
1425  0  1  11.222961339362  -2.657138476096   5.512370805306
1426  0  1  11.222848455167  -2.657130760651   8.367547024866
1427  0  1  11.222919229532  -2.657150441046  11.222919229532
1428  0  1  11.223009570990  -2.657164956503  14.078486220249
1429  0  1  11.223174572549   0.198073779751   2.657208390791
1430  0  1  11.222987517070   0.198073779751   5.512398568297
1431  0  1  11.222854055636   0.198073779751   8.367557696995
1432  0  1  11.222920057857   0.198073779751  11.222920057857
1433  0  1  11.223011991005   0.198073779751  14.078486220249
1434  0  1  14.078486220249 -11.223009570990   2.657164956503
1435  0  1  14.078486220249 -11.223004536325   5.512406124207
1436  0  1  14.078486220249 -11.223003996554   8.367672283902
1437  0  1  14.078486220249  -8.367699041846   2.657170113154
1438  0  1  14.078486220249  -8.367672003434   5.512404308621
1439  0  1  14.078486220249  -8.367653413932   8.367653413932
1440  0  1  14.078486220249  -8.367672283902  11.223003996554
1441  0  1  14.078486220249  -5.512472840096   2.657188679907
1442  0  1  14.078486220249  -5.512430259392   5.512430259392
1443  0  1  14.078486220249  -5.512404308621   8.367672003434
1444  0  1  14.078486220249  -5.512406124207  11.223004536325
1445  0  1  14.078486220249  -5.512412086242  14.078486220249
1446  0  1  14.078486220249  -2.657217535354   2.657217535354
1447  0  1  14.078486220249  -2.657188679907   5.512472840096
1448  0  1  14.078486220249  -2.657170113154   8.367699041846
1449  0  1  14.078486220249  -2.657164956503  11.223009570990
1450  0  1  14.078486220249  -2.657165592825  14.078486220249
1451  0  1  14.078486220249   0.198073779751   2.657233494385
1452  0  1  14.078486220249   0.198073779751   5.512493094132
1453  0  1  14.078486220249   0.198073779751   8.367710761297
1454  0  1  14.078486220249   0.198073779751  11.223011991005
1455  0  1  14.078486220249   0.198073779751  14.078486220249
1456  0  1 -11.619066789034 -11.222919229532   2.657150441046
1457  0  1 -11.619066507516 -11.222918948014   5.512372807930
1458  0  1 -11.619076286408 -11.222928726905   8.367619291074
1459  0  1 -11.619113006463 -11.222965446960  11.222965446960
1460  0  1 -11.618996014670  -8.367547024866   2.657130760651
1461  0  1 -11.618982589815  -8.367524513061   5.512318863836
1462  0  1 -11.618980239524  -8.367522082599   8.367522082599
1463  0  1 -11.619076286408  -8.367619291074  11.222928726905
1464  0  1 -11.619151556057  -8.367672283902  14.078486220249
1465  0  1 -11.619108898865  -5.512370805306   2.657138476096
1466  0  1 -11.619038246491  -5.512316629583   5.512316629583
1467  0  1 -11.618982589815  -5.512318863836   8.367524513061
1468  0  1 -11.619066507516  -5.512372807930  11.222918948014
1469  0  1 -11.619152095828  -5.512406124207  14.078486220249
1470  0  1 -11.619271735649  -2.657183176876   2.657183176876
1471  0  1 -11.619108898865  -2.657138476096   5.512370805306
1472  0  1 -11.618996014670  -2.657130760651   8.367547024866
1473  0  1 -11.619066789034  -2.657150441046  11.222919229532
1474  0  1 -11.619157130492  -2.657164956503  14.078486220249
1475  0  1 -11.619322132052   0.198073779751   2.657208390791
1476  0  1 -11.619135076573   0.198073779751   5.512398568297
1477  0  1 -11.619001615138   0.198073779751   8.367557696995
1478  0  1 -11.619067617359   0.198073779751  11.222920057857
1479  0  1 -11.619159550507   0.198073779751  14.078486220249
1480  0  1  -8.763694584369 -11.222848455167   2.657130760651
1481  0  1  -8.763672072564 -11.222835030312   5.512318863836
1482  0  1  -8.763669642102 -11.222832680021   8.367522082599
1483  0  1  -8.763766850576 -11.222928726905  11.222928726905
1484  0  1  -8.763819843405 -11.223003996554  14.078486220249
1485  0  1  -8.763247985844  -8.367100426341   2.657012981749
1486  0  1  -8.763233744124  -8.367086184622   5.512063037021
1487  0  1  -8.763257511266  -8.367109951763   8.367109951763
1488  0  1  -8.763669642102  -8.367522082599  11.222832680021
1489  0  1  -8.763800973434  -8.367653413932  14.078486220249
1490  0  1  -8.763083126398  -5.511784271247   5.511784271247
1491  0  1  -8.763233744124  -5.512063037021   8.367086184622
1492  0  1  -8.763672072564  -5.512318863836  11.222835030312
1493  0  1  -8.763819562937  -5.512404308621  14.078486220249
1494  0  1  -8.763247985844  -2.657012981749   8.367100426341
1495  0  1  -8.763694584369  -2.657130760651  11.222848455167
1496  0  1  -8.763846601349  -2.657170113154  14.078486220249
1497  0  1  -8.763257329777   0.198073779751   8.367109770274
1498  0  1  -8.763705256497   0.198073779751  11.222854055636
1499  0  1  -8.763858320800   0.198073779751  14.078486220249
1500  0  1  -5.908518364808 -11.222961339362   2.657138476096
1501  0  1  -5.908464189086 -11.222890686988   5.512316629583
1502  0  1  -5.908466423339 -11.222835030312   8.367524513061
1503  0  1  -5.908520367432 -11.222918948014  11.222918948014
1504  0  1  -5.908553683710 -11.223004536325  14.078486220249
1505  0  1  -5.907931830750  -8.366935566896   5.511784271247
1506  0  1  -5.908210596523  -8.367086184622   8.367086184622
1507  0  1  -5.908466423339  -8.367524513061  11.222835030312
1508  0  1  -5.908551868123  -8.367672003434  14.078486220249
1509  0  1  -5.907931830749  -5.511784271247   8.366935566896
1510  0  1  -5.908464189086  -5.512316629583  11.222890686988
1511  0  1  -5.908577818895  -5.512430259392  14.078486220249
1512  0  1  -5.908518364808  -2.657138476096  11.222961339362
1513  0  1  -5.908620399598  -2.657188679907  14.078486220249
1514  0  1  -5.908546127799   0.198073779751  11.222987517070
1515  0  1  -5.908640653635   0.198073779751  14.078486220249
1516  0  1  -3.053330736378 -11.223124176147   2.657183176876
1517  0  1  -3.053286035598 -11.222961339362   5.512370805306
1518  0  1  -3.053278320153 -11.222848455167   8.367547024866
1519  0  1  -3.053298000549 -11.222919229532  11.222919229532
1520  0  1  -3.053312516006 -11.223009570990  14.078486220249
1521  0  1  -3.053160541252  -8.367100426341   8.367100426341
1522  0  1  -3.053278320153  -8.367547024866  11.222848455167
1523  0  1  -3.053317672657  -8.367699041846  14.078486220249
1524  0  1  -3.053286035598  -5.512370805306  11.222961339362
1525  0  1  -3.053336239410  -5.512472840096  14.078486220249
1526  0  1  -3.053330736378  -2.657183176876  11.223124176147
1527  0  1  -3.053365094857  -2.657217535354  14.078486220249
1528  0  1  -3.053355950294   0.198073779751  11.223174572549
1529  0  1  -3.053381053888   0.198073779751  14.078486220249
1530  0  1  -0.198073779751 -11.223174572549   2.657208390791
1531  0  1  -0.198073779751 -11.222987517070   5.512398568297
1532  0  1  -0.198073779751 -11.222854055636   8.367557696995
1533  0  1  -0.198073779751 -11.222920057857  11.222920057857
1534  0  1  -0.198073779751 -11.223011991005  14.078486220249
1535  0  1  -0.198073779751  -8.367109770274   8.367109770274
1536  0  1  -0.198073779751  -8.367557696995  11.222854055636
1537  0  1  -0.198073779751  -8.367710761297  14.078486220249
1538  0  1  -0.198073779751  -5.512398568297  11.222987517070
1539  0  1  -0.198073779751  -5.512493094132  14.078486220249
1540  0  1  -0.198073779751  -2.657208390791  11.223174572549
1541  0  1   1.229577757809  -1.229577757809 -13.046999708565
1542  0  1  -1.625725317311  -1.229577757809 -13.046999708565
1543  0  1   1.229577757809   1.625725317311 -13.046999708565
1544  0  1  -1.625725317311   1.625725317311 -13.046999708565
1545  0  1   1.229544956349 -12.650718591528 -13.046866151031
1546  0  1   1.229543235146 -12.650676987253 -10.191451146109
1547  0  1   1.229548006183 -12.650708343796  -7.336213117792
1548  0  1   1.229561525913 -12.650792122045  -4.481000339400
1549  0  1   1.229543235146  -9.795303586607 -13.046824546756
1550  0  1   1.229518689110  -9.795063204426 -10.191210763929
1551  0  1   1.229498999813  -9.795014003190  -7.335910756861
1552  0  1   1.229510380910  -9.795309837457  -4.480866722904
1553  0  1   1.229548006183  -6.940065558290 -13.046855903299
1554  0  1   1.229498999813  -6.939763197358 -10.191161562693
1555  0  1   1.229561525913  -4.084852779897 -13.046939681547
1556  0  1   1.229510380910  -4.084719163402 -10.191457396960
1557  0  1   4.084783694626 -12.650718358973 -13.046865918476
1558  0  1   4.084773401102 -12.650675726910 -10.191440792595
1559  0  1   4.084779098786 -12.650693961397  -7.336181198835
1560  0  1   4.084814835183 -12.650756878158  -4.480962394686
1561  0  1   4.084852779897 -12.650792122045  -1.625709085416
1562  0  1   4.084773401102  -9.795293233092 -13.046823286413
1563  0  1   4.084693325521  -9.795058194374 -10.191205753877
1564  0  1   4.084616717281  -9.794976685520  -7.335872297999
1565  0  1   4.084645365880  -9.795187907313  -4.480792925383
1566  0  1   4.084719163402  -9.795309837457  -1.625657940413
1567  0  1   4.084779098786  -6.940033639332 -13.046841520900
1568  0  1   4.084616717281  -6.939724738496 -10.191124245023
1569  0  1   4.084248293101  -6.938928417858  -7.335075977361
1570  0  1   4.084814835183  -4.084814835183 -13.046904437661
1571  0  1   4.084645365880  -4.084645365880 -10.191335466816
1572  0  1   4.084852779897  -1.229561525913 -13.046939681547
1573  0  1   4.084719163402  -1.229510380910 -10.191457396960
1574  0  1   6.940035309945 -12.650719694527 -13.046867254029
1575  0  1   6.940006403071 -12.650676152747 -10.191429901248
1576  0  1   6.939997782490 -12.650672179920  -7.336145341992
1577  0  1   6.940033639332 -12.650693961397  -4.480926658289
1578  0  1   6.940065558289 -12.650708343796  -1.625695565686
1579  0  1   6.940006403071  -9.795282341746 -13.046823712249
1580  0  1   6.939863467639  -9.795062001445 -10.191209560947
1581  0  1   6.939686889901  -9.794916101491  -7.335834449403
1582  0  1   6.939724738496  -9.794976685520  -4.480764276783
1583  0  1   6.939763197358  -9.795014003190  -1.625646559316
1584  0  1   6.939997782490  -6.939997782490 -13.046819739422
1585  0  1   6.939686889901  -6.939686889901 -10.191063660994
1586  0  1   6.938768265872  -6.938768265872  -7.334915825374
1587  0  1   6.938928417858  -6.938928417858  -4.480395852604
1588  0  1   6.940033639332  -4.084779098786 -13.046841520900
1589  0  1   6.939724738496  -4.084616717281 -10.191124245023
1590  0  1   6.938928417858  -4.084248293101  -7.335075977361
1591  0  1   6.940065558289  -1.229548006183 -13.046855903299
1592  0  1   6.939763197358  -1.229498999813 -10.191161562693
1593  0  1   9.795336040233 -12.650726413538 -13.046873973041
1594  0  1   9.795290127838 -12.650687344601 -10.191437687341
1595  0  1   9.795282341746 -12.650676152747  -7.336153962573
1596  0  1   9.795293233092 -12.650675726910  -4.480920960605
1597  0  1   9.795303586607 -12.650676987253  -1.625690794648
1598  0  1   9.795290127838  -9.795290127838 -13.046834904104
1599  0  1   9.795115986429  -9.795115986429 -10.191263545931
1600  0  1   9.795062001445  -9.795062001445  -7.336011027142
1601  0  1   9.795058194374  -9.795058194374  -4.480840885024
1602  0  1   9.795063204426  -9.795063204426  -1.625666248613
1603  0  1   9.795282341746  -6.940006403071 -13.046823712249
1604  0  1   9.795062001445  -6.939863467639 -10.191209560947
1605  0  1   9.794916101491  -6.939686889901  -7.335834449403
1606  0  1   9.794976685520  -6.939724738496  -4.480764276783
1607  0  1   9.795014003190  -6.939763197358  -1.625646559316
1608  0  1   9.795293233092  -4.084773401102 -13.046823286413
1609  0  1   9.795058194374  -4.084693325521 -10.191205753877
1610  0  1   9.794976685520  -4.084616717281  -7.335872297999
1611  0  1   9.795187907313  -4.084645365880  -4.480792925383
1612  0  1   9.795309837457  -4.084719163402  -1.625657940413
1613  0  1   9.795303586607  -1.229543235146 -13.046824546756
1614  0  1   9.795063204426  -1.229518689110 -10.191210763929
1615  0  1   9.795014003190  -1.229498999813  -7.335910756861
1616  0  1   9.795309837457  -1.229510380910  -4.480866722904
1617  0  1  12.650726413538 -12.650726413538 -10.191483599736
1618  0  1  12.650719694527 -12.650719694527  -7.336182869448
1619  0  1  12.650718358973 -12.650718358973  -4.480931254129
1620  0  1  12.650718591528 -12.650718591528  -1.625692515851
1621  0  1  12.650726413538  -9.795336040233 -13.046873973041
1622  0  1  12.650687344601  -9.795290127838 -10.191437687341
1623  0  1  12.650676152747  -9.795282341746  -7.336153962573
1624  0  1  12.650675726910  -9.795293233092  -4.480920960605
1625  0  1  12.650676987253  -9.795303586607  -1.625690794648
1626  0  1  12.650719694527  -6.940035309945 -13.046867254029
1627  0  1  12.650676152747  -6.940006403071 -10.191429901248
1628  0  1  12.650672179920  -6.939997782490  -7.336145341992
1629  0  1  12.650693961397  -6.940033639332  -4.480926658289
1630  0  1  12.650708343796  -6.940065558290  -1.625695565686
1631  0  1  12.650718358973  -4.084783694626 -13.046865918476
1632  0  1  12.650675726910  -4.084773401102 -10.191440792595
1633  0  1  12.650693961397  -4.084779098786  -7.336181198835
1634  0  1  12.650756878158  -4.084814835183  -4.480962394686
1635  0  1  12.650792122045  -4.084852779897  -1.625709085416
1636  0  1  12.650718591528  -1.229544956349 -13.046866151031
1637  0  1  12.650676987253  -1.229543235146 -10.191451146109
1638  0  1  12.650708343796  -1.229548006183  -7.336213117792
1639  0  1  12.650792122045  -1.229561525913  -4.481000339400
1640  0  1  12.650852149062  -1.229577757809  -1.625725317311
1641  0  1 -13.046867254029 -12.650719694527  -7.336182869448
1642  0  1 -13.046865918476 -12.650718358973  -4.480931254129
1643  0  1 -13.046866151031 -12.650718591528  -1.625692515851
1644  0  1 -13.046834904104  -9.795290127838 -10.191437687341
1645  0  1 -13.046823712249  -9.795282341746  -7.336153962573
1646  0  1 -13.046823286413  -9.795293233092  -4.480920960605
1647  0  1 -13.046824546756  -9.795303586607  -1.625690794648
1648  0  1 -13.046867254029  -6.940035309945 -13.046867254029
1649  0  1 -13.046823712249  -6.940006403071 -10.191429901248
1650  0  1 -13.046819739422  -6.939997782490  -7.336145341992
1651  0  1 -13.046841520900  -6.940033639332  -4.480926658289
1652  0  1 -13.046855903299  -6.940065558290  -1.625695565686
1653  0  1 -13.046865918476  -4.084783694626 -13.046865918476
1654  0  1 -13.046823286413  -4.084773401102 -10.191440792595
1655  0  1 -13.046841520900  -4.084779098786  -7.336181198835
1656  0  1 -13.046904437661  -4.084814835183  -4.480962394686
1657  0  1 -13.046939681547  -4.084852779897  -1.625709085416
1658  0  1 -13.046866151031  -1.229544956349 -13.046866151031
1659  0  1 -13.046824546756  -1.229543235146 -10.191451146109
1660  0  1 -13.046855903299  -1.229548006183  -7.336213117792
1661  0  1 -13.046939681547  -1.229561525913  -4.481000339400
1662  0  1 -13.046999708565  -1.229577757809  -1.625725317311
1663  0  1 -10.191437687341 -12.650687344601 -10.191437687341
1664  0  1 -10.191429901248 -12.650676152747  -7.336153962573
1665  0  1 -10.191440792595 -12.650675726910  -4.480920960605
1666  0  1 -10.191451146109 -12.650676987253  -1.625690794648
1667  0  1 -10.191437687341  -9.795290127838 -13.046834904104
1668  0  1 -10.191263545931  -9.795115986429 -10.191263545931
1669  0  1 -10.191209560947  -9.795062001445  -7.336011027142
1670  0  1 -10.191205753877  -9.795058194374  -4.480840885024
1671  0  1 -10.191210763929  -9.795063204426  -1.625666248613
1672  0  1 -10.191429901248  -6.940006403071 -13.046823712249
1673  0  1 -10.191209560947  -6.939863467639 -10.191209560947
1674  0  1 -10.191063660994  -6.939686889901  -7.335834449403
1675  0  1 -10.191124245023  -6.939724738496  -4.480764276783
1676  0  1 -10.191161562693  -6.939763197358  -1.625646559316
1677  0  1 -10.191440792595  -4.084773401102 -13.046823286413
1678  0  1 -10.191205753877  -4.084693325521 -10.191205753877
1679  0  1 -10.191124245023  -4.084616717281  -7.335872297999
1680  0  1 -10.191335466816  -4.084645365880  -4.480792925383
1681  0  1 -10.191457396960  -4.084719163402  -1.625657940413
1682  0  1 -10.191451146109  -1.229543235146 -13.046824546756
1683  0  1 -10.191210763929  -1.229518689110 -10.191210763929
1684  0  1 -10.191161562693  -1.229498999813  -7.335910756861
1685  0  1 -10.191457396960  -1.229510380910  -4.480866722904
1686  0  1  -7.336182869448 -12.650719694527 -13.046867254029
1687  0  1  -7.336153962573 -12.650676152747 -10.191429901248
1688  0  1  -7.336145341992 -12.650672179920  -7.336145341992
1689  0  1  -7.336181198835 -12.650693961397  -4.480926658289
1690  0  1  -7.336213117792 -12.650708343796  -1.625695565686
1691  0  1  -7.336153962573  -9.795282341746 -13.046823712249
1692  0  1  -7.336011027142  -9.795062001445 -10.191209560947
1693  0  1  -7.335834449403  -9.794916101491  -7.335834449403
1694  0  1  -7.335872297999  -9.794976685520  -4.480764276783
1695  0  1  -7.335910756861  -9.795014003190  -1.625646559316
1696  0  1  -7.336145341992  -6.939997782490 -13.046819739422
1697  0  1  -7.335834449403  -6.939686889901 -10.191063660994
1698  0  1  -7.334915825374  -6.938768265872  -7.334915825374
1699  0  1  -7.335075977361  -6.938928417858  -4.480395852604
1700  0  1  -7.336181198835  -4.084779098786 -13.046841520900
1701  0  1  -7.335872297999  -4.084616717281 -10.191124245023
1702  0  1  -7.335075977361  -4.084248293101  -7.335075977361
1703  0  1  -7.336213117792  -1.229548006183 -13.046855903299
1704  0  1  -7.335910756861  -1.229498999813 -10.191161562693
1705  0  1  -4.480931254129 -12.650718358973 -13.046865918476
1706  0  1  -4.480920960605 -12.650675726910 -10.191440792595
1707  0  1  -4.480926658289 -12.650693961397  -7.336181198835
1708  0  1  -4.480962394686 -12.650756878158  -4.480962394686
1709  0  1  -4.481000339400 -12.650792122045  -1.625709085416
1710  0  1  -4.480920960605  -9.795293233092 -13.046823286413
1711  0  1  -4.480840885024  -9.795058194374 -10.191205753877
1712  0  1  -4.480764276783  -9.794976685520  -7.335872297999
1713  0  1  -4.480792925383  -9.795187907313  -4.480792925383
1714  0  1  -4.480866722904  -9.795309837457  -1.625657940413
1715  0  1  -4.480926658289  -6.940033639332 -13.046841520900
1716  0  1  -4.480764276783  -6.939724738496 -10.191124245023
1717  0  1  -4.480395852604  -6.938928417858  -7.335075977361
1718  0  1  -4.480962394686  -4.084814835183 -13.046904437661
1719  0  1  -4.480792925383  -4.084645365880 -10.191335466816
1720  0  1  -4.481000339400  -1.229561525913 -13.046939681547
1721  0  1  -4.480866722904  -1.229510380910 -10.191457396960
1722  0  1  -1.625692515851 -12.650718591528 -13.046866151031
1723  0  1  -1.625690794648 -12.650676987253 -10.191451146109
1724  0  1  -1.625695565686 -12.650708343796  -7.336213117792
1725  0  1  -1.625709085416 -12.650792122045  -4.481000339400
1726  0  1  -1.625690794648  -9.795303586607 -13.046824546756
1727  0  1  -1.625666248613  -9.795063204426 -10.191210763929
1728  0  1  -1.625646559316  -9.795014003190  -7.335910756861
1729  0  1  -1.625657940413  -9.795309837457  -4.480866722904
1730  0  1  -1.625695565686  -6.940065558290 -13.046855903299
1731  0  1  -1.625646559316  -6.939763197358 -10.191161562693
1732  0  1  -1.625709085416  -4.084852779897 -13.046939681547
1733  0  1  -1.625657940413  -4.084719163402 -10.191457396960
1734  0  1   2.657150441046 -11.222919229532 -11.619066789034
1735  0  1   2.657130760651 -11.222848455167  -8.763694584369
1736  0  1   2.657138476096 -11.222961339362  -5.908518364808
1737  0  1   2.657183176876 -11.223124176147  -3.053330736378
1738  0  1   2.657208390791 -11.223174572549  -0.198073779751
1739  0  1   2.657130760651  -8.367547024866 -11.618996014670
1740  0  1   2.657012981749  -8.367100426341  -8.763247985844
1741  0  1   2.657138476096  -5.512370805306 -11.619108898865
1742  0  1   2.657183176876  -2.657183176876 -11.619271735649
1743  0  1   2.657208390791   0.198073779751 -11.619322132052
1744  0  1   5.512372807930 -11.222918948014 -11.619066507516
1745  0  1   5.512318863836 -11.222835030312  -8.763672072564
1746  0  1   5.512316629583 -11.222890686988  -5.908464189086
1747  0  1   5.512370805306 -11.222961339362  -3.053286035598
1748  0  1   5.512398568297 -11.222987517070  -0.198073779751
1749  0  1   5.512318863836  -8.367524513061 -11.618982589815
1750  0  1   5.512063037021  -8.367086184622  -8.763233744124
1751  0  1   5.511784271247  -8.366935566896  -5.907931830749
1752  0  1   5.512316629583  -5.512316629583 -11.619038246491
1753  0  1   5.511784271247  -5.511784271247  -8.763083126398
1754  0  1   5.512370805306  -2.657138476096 -11.619108898865
1755  0  1   5.512398568297   0.198073779751 -11.619135076573
1756  0  1   8.367619291074 -11.222928726905 -11.619076286408
1757  0  1   8.367522082599 -11.222832680021  -8.763669642102
1758  0  1   8.367524513061 -11.222835030312  -5.908466423339
1759  0  1   8.367547024866 -11.222848455167  -3.053278320153
1760  0  1   8.367557696995 -11.222854055636  -0.198073779751
1761  0  1   8.367522082599  -8.367522082599 -11.618980239524
1762  0  1   8.367109951763  -8.367109951763  -8.763257511266
1763  0  1   8.367086184622  -8.367086184622  -5.908210596523
1764  0  1   8.367100426341  -8.367100426341  -3.053160541252
1765  0  1   8.367109770274  -8.367109770274  -0.198073779751
1766  0  1   8.367524513061  -5.512318863836 -11.618982589815
1767  0  1   8.367086184622  -5.512063037021  -8.763233744124
1768  0  1   8.366935566896  -5.511784271247  -5.907931830749
1769  0  1   8.367547024866  -2.657130760651 -11.618996014670
1770  0  1   8.367100426341  -2.657012981749  -8.763247985844
1771  0  1   8.367557696995   0.198073779751 -11.619001615138
1772  0  1   8.367109770274   0.198073779751  -8.763257329777
1773  0  1  11.222965446960 -11.222965446960 -11.619113006463
1774  0  1  11.222928726905 -11.222928726905  -8.763766850576
1775  0  1  11.222918948014 -11.222918948014  -5.908520367432
1776  0  1  11.222919229532 -11.222919229532  -3.053298000548
1777  0  1  11.222920057857 -11.222920057857  -0.198073779751
1778  0  1  11.222928726905  -8.367619291074 -11.619076286408
1779  0  1  11.222832680021  -8.367522082599  -8.763669642102
1780  0  1  11.222835030312  -8.367524513061  -5.908466423339
1781  0  1  11.222848455167  -8.367547024866  -3.053278320153
1782  0  1  11.222854055636  -8.367557696995  -0.198073779751
1783  0  1  11.222918948014  -5.512372807930 -11.619066507516
1784  0  1  11.222835030312  -5.512318863836  -8.763672072564
1785  0  1  11.222890686988  -5.512316629583  -5.908464189086
1786  0  1  11.222961339362  -5.512370805306  -3.053286035598
1787  0  1  11.222987517070  -5.512398568297  -0.198073779751
1788  0  1  11.222919229532  -2.657150441046 -11.619066789034
1789  0  1  11.222848455167  -2.657130760651  -8.763694584369
1790  0  1  11.222961339362  -2.657138476096  -5.908518364808
1791  0  1  11.223124176147  -2.657183176876  -3.053330736378
1792  0  1  11.223174572549  -2.657208390791  -0.198073779751
1793  0  1  11.222920057857   0.198073779751 -11.619067617359
1794  0  1  11.222854055636   0.198073779751  -8.763705256497
1795  0  1  11.222987517070   0.198073779751  -5.908546127799
1796  0  1  11.223174572549   0.198073779751  -3.053355950294
1797  0  1  11.223258725835   0.198073779751  -0.198073779751
1798  0  1  14.078486220249 -11.223003996554  -8.763819843405
1799  0  1  14.078486220249 -11.223004536325  -5.908553683710
1800  0  1  14.078486220249 -11.223009570990  -3.053312516006
1801  0  1  14.078486220249 -11.223011991005  -0.198073779751
1802  0  1  14.078486220249  -8.367672283902 -11.619151556057
1803  0  1  14.078486220249  -8.367653413932  -8.763800973434
1804  0  1  14.078486220249  -8.367672003434  -5.908551868123
1805  0  1  14.078486220249  -8.367699041846  -3.053317672657
1806  0  1  14.078486220249  -8.367710761297  -0.198073779751
1807  0  1  14.078486220249  -5.512406124207 -11.619152095828
1808  0  1  14.078486220249  -5.512404308621  -8.763819562937
1809  0  1  14.078486220249  -5.512430259392  -5.908577818895
1810  0  1  14.078486220249  -5.512472840096  -3.053336239410
1811  0  1  14.078486220249  -5.512493094132  -0.198073779751
1812  0  1  14.078486220249  -2.657164956503 -11.619157130492
1813  0  1  14.078486220249  -2.657170113154  -8.763846601349
1814  0  1  14.078486220249  -2.657188679907  -5.908620399598
1815  0  1  14.078486220249  -2.657217535354  -3.053365094857
1816  0  1  14.078486220249  -2.657233494385  -0.198073779751
1817  0  1  14.078486220249   0.198073779751 -11.619159550507
1818  0  1  14.078486220249   0.198073779751  -8.763858320800
1819  0  1  14.078486220249   0.198073779751  -5.908640653635
1820  0  1  14.078486220249   0.198073779751  -3.053381053888
1821  0  1  14.078486220249   0.198073779751  -0.198073779751
1822  0  1 -11.619113006463 -11.222965446960 -11.619113006463
1823  0  1 -11.619076286408 -11.222928726905  -8.763766850576
1824  0  1 -11.619066507516 -11.222918948014  -5.908520367432
1825  0  1 -11.619066789034 -11.222919229532  -3.053298000548
1826  0  1 -11.619067617359 -11.222920057857  -0.198073779751
1827  0  1 -11.619076286408  -8.367619291074 -11.619076286408
1828  0  1 -11.618980239524  -8.367522082599  -8.763669642102
1829  0  1 -11.618982589815  -8.367524513061  -5.908466423339
1830  0  1 -11.618996014670  -8.367547024866  -3.053278320153
1831  0  1 -11.619001615138  -8.367557696995  -0.198073779751
1832  0  1 -11.619066507516  -5.512372807930 -11.619066507516
1833  0  1 -11.618982589815  -5.512318863836  -8.763672072564
1834  0  1 -11.619038246491  -5.512316629583  -5.908464189086
1835  0  1 -11.619108898865  -5.512370805306  -3.053286035598
1836  0  1 -11.619135076573  -5.512398568297  -0.198073779751
1837  0  1 -11.619066789034  -2.657150441046 -11.619066789034
1838  0  1 -11.618996014670  -2.657130760651  -8.763694584369
1839  0  1 -11.619108898865  -2.657138476096  -5.908518364808
1840  0  1 -11.619271735649  -2.657183176876  -3.053330736378
1841  0  1 -11.619322132052  -2.657208390791  -0.198073779751
1842  0  1 -11.619067617359   0.198073779751 -11.619067617359
1843  0  1 -11.619001615138   0.198073779751  -8.763705256497
1844  0  1 -11.619135076573   0.198073779751  -5.908546127799
1845  0  1 -11.619322132052   0.198073779751  -3.053355950294
1846  0  1 -11.619406285338   0.198073779751  -0.198073779751
1847  0  1  -8.763766850576 -11.222928726905 -11.619076286408
1848  0  1  -8.763669642102 -11.222832680021  -8.763669642102
1849  0  1  -8.763672072564 -11.222835030312  -5.908466423339
1850  0  1  -8.763694584369 -11.222848455167  -3.053278320153
1851  0  1  -8.763705256497 -11.222854055636  -0.198073779751
1852  0  1  -8.763669642102  -8.367522082599 -11.618980239524
1853  0  1  -8.763257511266  -8.367109951763  -8.763257511266
1854  0  1  -8.763233744124  -8.367086184622  -5.908210596523
1855  0  1  -8.763247985844  -8.367100426341  -3.053160541252
1856  0  1  -8.763257329777  -8.367109770274  -0.198073779751
1857  0  1  -8.763672072564  -5.512318863836 -11.618982589815
1858  0  1  -8.763233744124  -5.512063037021  -8.763233744124
1859  0  1  -8.763083126398  -5.511784271247  -5.907931830749
1860  0  1  -8.763262632121  -5.511906659556  -3.053081675902
1861  0  1  -8.763694584369  -2.657130760651 -11.618996014670
1862  0  1  -8.763247985844  -2.657012981749  -8.763247985844
1863  0  1  -8.763262632121  -2.656934116400  -5.908054219059
1864  0  1  -8.763705256497   0.198073779751 -11.619001615138
1865  0  1  -8.763257329777   0.198073779751  -8.763257329777
1866  0  1  -5.908520367432 -11.222918948014 -11.619066507516
1867  0  1  -5.908466423339 -11.222835030312  -8.763672072564
1868  0  1  -5.908464189086 -11.222890686988  -5.908464189086
1869  0  1  -5.908518364808 -11.222961339362  -3.053286035598
1870  0  1  -5.908546127799 -11.222987517070  -0.198073779751
1871  0  1  -5.908466423339  -8.367524513061 -11.618982589815
1872  0  1  -5.908210596523  -8.367086184622  -8.763233744124
1873  0  1  -5.907931830750  -8.366935566896  -5.907931830750
1874  0  1  -5.908464189086  -5.512316629583 -11.619038246491
1875  0  1  -5.907931830749  -5.511784271247  -8.763083126398
1876  0  1  -5.908518364808  -2.657138476096 -11.619108898865
1877  0  1  -5.908054219059  -2.656934116400  -8.763262632121
1878  0  1  -5.908546127799   0.198073779751 -11.619135076573
1879  0  1  -3.053298000549 -11.222919229532 -11.619066789034
1880  0  1  -3.053278320153 -11.222848455167  -8.763694584369
1881  0  1  -3.053286035598 -11.222961339362  -5.908518364808
1882  0  1  -3.053330736378 -11.223124176147  -3.053330736378
1883  0  1  -3.053355950294 -11.223174572549  -0.198073779751
1884  0  1  -3.053278320153  -8.367547024866 -11.618996014670
1885  0  1  -3.053160541252  -8.367100426341  -8.763247985844
1886  0  1  -3.053286035598  -5.512370805306 -11.619108898865
1887  0  1  -3.053081675902  -5.511906659556  -8.763262632121
1888  0  1  -3.053330736378  -2.657183176876 -11.619271735649
1889  0  1  -3.053355950294   0.198073779751 -11.619322132052
1890  0  1  -0.198073779751 -11.222920057857 -11.619067617359
1891  0  1  -0.198073779751 -11.222854055636  -8.763705256497
1892  0  1  -0.198073779751 -11.222987517070  -5.908546127799
1893  0  1  -0.198073779751 -11.223174572549  -3.053355950294
1894  0  1  -0.198073779751 -11.223258725835  -0.198073779751
1895  0  1  -0.198073779751  -8.367557696995 -11.619001615138
1896  0  1  -0.198073779751  -8.367109770274  -8.763257329777
1897  0  1  -0.198073779751  -5.512398568297 -11.619135076573
1898  0  1  -0.198073779751  -2.657208390791 -11.619322132052
1899  0  1  -0.198073779751   0.198073779751 -11.619406285338
1900  0  1   4.084852779897   1.625709085416 -13.046939681547
1901  0  1   4.084719163402   1.625657940413 -10.191457396960
1902  0  1   6.940065558289   1.625695565686 -13.046855903299
1903  0  1   6.939763197358   1.625646559316 -10.191161562693
1904  0  1   9.795303586607   1.625690794648 -13.046824546756
1905  0  1   9.795063204426   1.625666248613 -10.191210763929
1906  0  1   9.795014003190   1.625646559316  -7.335910756861
1907  0  1   9.795309837457   1.625657940413  -4.480866722904
1908  0  1  12.650718591528   1.625692515851 -13.046866151031
1909  0  1  12.650676987253   1.625690794648 -10.191451146109
1910  0  1  12.650708343796   1.625695565686  -7.336213117792
1911  0  1  12.650792122045   1.625709085416  -4.481000339400
1912  0  1  12.650852149062   1.625725317311  -1.625725317311
1913  0  1 -13.046866151031   1.625692515851 -13.046866151031
1914  0  1 -13.046824546756   1.625690794648 -10.191451146109
1915  0  1 -13.046855903299   1.625695565686  -7.336213117792
1916  0  1 -13.046939681547   1.625709085416  -4.481000339400
1917  0  1 -13.046999708565   1.625725317311  -1.625725317311
1918  0  1 -10.191451146109   1.625690794648 -13.046824546755
1919  0  1 -10.191210763929   1.625666248613 -10.191210763929
1920  0  1 -10.191161562693   1.625646559316  -7.335910756861
1921  0  1 -10.191457396960   1.625657940413  -4.480866722904
1922  0  1  -7.336213117792   1.625695565686 -13.046855903299
1923  0  1  -7.335910756861   1.625646559316 -10.191161562693
1924  0  1  -4.481000339400   1.625709085416 -13.046939681547
1925  0  1  -4.480866722904   1.625657940413 -10.191457396960
1926  0  1   4.084852779897 -12.650792122045   1.229561525913
1927  0  1   6.940065558289 -12.650708343796   1.229548006183
1928  0  1   6.939763197358  -9.795014003190   1.229498999813
1929  0  1   9.795303586607 -12.650676987253   1.229543235146
1930  0  1   9.795063204426  -9.795063204426   1.229518689110
1931  0  1   9.795014003190  -6.939763197358   1.229498999813
1932  0  1  12.650718591528 -12.650718591528   1.229544956349
1933  0  1  12.650676987253  -9.795303586607   1.229543235146
1934  0  1  12.650708343796  -6.940065558290   1.229548006183
1935  0  1  12.650792122045  -4.084852779897   1.229561525913
1936  0  1 -13.046999708565   1.625725317311   1.229577757809
1937  0  1  12.650852149062  -1.229577757809   1.229577757809
1938  0  1 -13.046866151031 -12.650718591528   1.229544956349
1939  0  1 -13.046824546756  -9.795303586607   1.229543235146
1940  0  1 -13.046855903299  -6.940065558290   1.229548006183
1941  0  1  12.650852149062   1.625725317311   1.229577757809
1942  0  1 -13.046939681547  -4.084852779897   1.229561525913
1943  0  1 -13.046999708565  -1.229577757809   1.229577757809
1944  0  1 -10.191451146109 -12.650676987253   1.229543235146
1945  0  1 -10.191210763929  -9.795063204426   1.229518689110
1946  0  1 -10.191161562693  -6.939763197358   1.229498999813
1947  0  1 -10.191457396960  -4.084719163402   1.229510380910
1948  0  1  -7.336213117792 -12.650708343796   1.229548006183
1949  0  1  -7.335910756861  -9.795014003190   1.229498999813
1950  0  1  -4.481000339400 -12.650792122045   1.229561525913
1951  0  1  -4.480866722904  -9.795309837457   1.229510380910

